        9076
 MC_STEP:                     0
 O        67.596874079434826       -18.782415831512498        126.65230531668969     
 H        67.696762218533351       -19.597068304163276        127.22358782864976     
 H        66.870613092340804       -18.932713876401536        125.98151843387761     
 O        133.42475520117191        147.00506736707646       -60.153967748287300     
 H        132.83839642494164        146.46845940484417       -59.547143819617183     
 H        133.33547504445286        146.66508705344214       -61.090152562190156     
 O        106.89302909327978        55.636336827119273        114.70707432000458     
 H        106.16414432915658        55.426960293021189        114.05523962654453     
 H        107.23585819598539        56.560437101619378        114.53823577336344     
 O       -48.552787843990110       -24.627884900775840        68.641172905001213     
 H       -48.636377808151785       -25.571902019108595        68.960303596389821     
 H       -48.142881928050109       -24.067743719638383        69.361046896124890     
 O       -117.91011082085745        147.70454836920055       -1.7766467640749197     
 H       -117.71988496314792        148.55380333036814       -2.2691710111845409     
 H       -118.80305209400814        147.35069264082347       -2.0549300226870222     
 O        88.366234280258240       -142.64301666178733        148.58244378963582     
 H        88.582789035837820       -143.57567896041311        148.29392156422159     
 H        88.298338421365713       -142.05260799655454        147.77820046439882     
 O       -124.13384485327857        119.32052797478430       -73.283156016207258     
 H       -123.34124595487172        118.85364206102406       -73.675335222408336     
 H       -124.96325018433782        119.02422725893196       -73.756751041963327     
 O       -54.272523633609964       -97.461820495309425        9.1167382513547111     
 H       -53.353605481885459       -97.816604430130440        9.2891267371190889     
 H       -54.785731853071987       -98.119516653645178        8.5653285555639869     
 O        145.09450460138001       -58.864526537575202       -125.98770828600674     
 H        144.10351777320923       -58.930249690848470       -125.87097965406134     
 H        145.51940027313708       -58.641505536801247       -125.11036863275899     
 O        136.84307564677718        136.47351376044645        74.909405673947163     
 H        136.64530333667750        136.56002331823186        75.885828845410032     
 H        137.32544416208245        137.29048281468474        74.593364939730535     
 O        132.28656551949913       -142.27538035046706        105.33715098100240     
 H        132.07239394805049       -141.96392541079675        106.26296217046718     
 H        133.15777913910560       -142.76623895944061        105.34380085572106     
 O        138.12214719734854        59.892337074811209       -71.284847807597913     
 H        137.18242965706833        59.798146043248359       -71.613571086455352     
 H        138.26206314433622        59.290659180459670       -70.498459350757244     
 O        128.10422461306206        8.6655127089552515        139.02462687344598     
 H        128.82699782123268        8.5607216875919878        139.70772110661767     
 H        127.95855518429200        7.7936398797799189        138.55706109936429     
 O        124.02009906951325        69.710607855528309       -68.645024570762018     
 H        124.67203330053388        68.968290827100361       -68.799773359866947     
 H        123.82923022923416        70.172554660040120       -69.511150313040147     
 O        144.18122360570530       -56.137460926318681        15.137628884592141     
 H        143.93714810644525       -55.636570319035584        14.307245990863878     
 H        143.36720554384735       -56.584241417836374        15.508791050219559     
 O        44.381731127130216        97.259051867857380        57.519133186035539     
 H        44.056006448940806        97.451057299891545        58.444896302652197     
 H        43.647956386082257        96.834091519717305        56.989054986395466     
 O        142.72378567070905       -57.092241153565432       -17.646766353297441     
 H        142.52344137075323       -58.070513774276193       -17.700103404611916     
 H        143.00315195117571       -56.759628264630535       -18.547500894256977     
 O        130.03335758085154       -50.118539002324233        16.049843048675744     
 H        130.18957731258394       -49.502830904157882        16.822176482672901     
 H        129.31851286471240       -50.776294307902859        16.287234193447652     
 O       -50.839073869263352        94.351257630061070       -39.491843822039343     
 H       -50.367291934204609        95.080047746871173       -38.995570942070941     
 H       -50.362039788160665        94.170832242285428       -40.352009347236397     
 O        68.988128028877071        129.62791028399627        46.251392633644159     
 H        69.987214617377532        129.65914140238425        46.280557782756688     
 H        68.632916899045739        130.53385467550061        46.020981308899039     
 O        40.930957869438359      -0.71465989331146051       -61.280306951840458     
 H        40.746853387258156       0.15120425591292042       -60.815135139786996     
 H        40.561255308278767       -1.4693765838631783       -60.738345422670996     
 O       -117.64629682134307       -38.813661813462417        23.534022492991589     
 H       -116.98181012664961       -38.457972495537639        24.191245850526574     
 H       -118.29320873407815       -39.413118796339077        24.005356629954793     
 O        65.923069452895547       -13.960348667972738       -36.673253847392822     
 H        65.379319812517949       -14.781809910022202       -36.845119365748872     
 H        65.889366864087734       -13.736050160966968       -35.699316538790448     
 O       -96.482852165553282        66.563084226068767        52.001291220033693     
 H       -96.986999820775850        67.423887404679647        52.070954908042502     
 H       -96.021173420317268        66.517959170619619        51.115392788274718     
 O        108.98037537649434        65.722610907688335       -133.69466541260653     
 H        109.03268678441034        66.123323602107291       -134.60937457574710     
 H        109.86585838766187        65.814825427722553       -133.23923607115657     
 O        87.857312935102499        24.512976107252836        118.87179951575882     
 H        87.374072761809813        23.754045075810872        118.43533345243833     
 H        88.181978966199523        25.148367697488418        118.17117903280489     
 O        129.31351193497727       -136.19714416689249       -139.90484139306864     
 H        128.36572108849819       -135.93937471719784       -139.71709842479927     
 H        129.60288029807489       -135.79392887496982       -140.77299054190362     
 O        144.29950905150415       -5.8768006323819018       -17.145883204500674     
 H        143.64546944310297       -5.2692967868014957       -17.596628441022897     
 H        144.86464235691730       -6.3290085740152620       -17.835906313143795     
 O       -80.186346211291593       -133.21861451993064        30.261853194107140     
 H       -79.972027016082208       -134.14587405264231        29.954840097382970     
 H       -79.623528600929006       -132.56257863013030        29.759008471966592     
 O       -119.90523044950403       -27.525699393036778        41.616163860608481     
 H       -119.92359266465088       -26.564555130984953        41.340728683879448     
 H       -120.82574632634690       -27.910101891666596        41.546272478075721     
 O        40.928472163988012        47.726410462899892        130.26735142424704     
 H        41.772956036801588        47.823895410466953        129.74071713600173     
 H        41.151933473442874        47.541724052849389        131.22440708560868     
 O        84.173650164254752       -17.716678667080750        147.08550574302396     
 H        84.589659897761294       -18.415484242360233        146.50360655107903     
 H        84.487205568633740       -17.837341052594329        148.02737790151039     
 O        107.45799204178590        44.574056774876865       -78.063792068090407     
 H        108.37011707135325        44.195337884464131       -77.906948411918734     
 H        107.54041043019610        45.499259090810781       -78.434207307608688     
 O        20.988382836990656        99.432187602032315        46.100662382916781     
 H        21.417055029395925        98.531027860570148        46.036232018752870     
 H        20.125834634823818        99.355990497778549        46.600866507317107     
 O        148.03262607477566       -128.46563425223357       -131.34198397461276     
 H        147.46120395727795       -128.14560230276109       -132.09766665600173     
 H        148.99418586865119       -128.43445236248797       -131.61480262936155     
 O       -71.086774733177975        65.476033889191541       -61.933385427619271     
 H       -71.835519244792138        65.548670855033350       -61.274518576486997     
 H       -71.456849385447867        65.497060584943753       -62.862149227321900     
 O        21.889438103912319       -17.498115821077892       -25.662886761254903     
 H        22.850897220189918       -17.227312010744662       -25.710443716957503     
 H        21.677928272159480       -18.111616296303662       -26.423728613281092     
 O       -80.911920164088258       -110.29066605530689        97.245758759204065     
 H       -80.752942018970799       -109.51357341959863        96.636781760539080     
 H       -80.677604712059235       -110.03294089319589        98.183134657966292     
 O        115.25027798372132       -49.041576388702289       -41.872487526664145     
 H        115.93677308585393       -48.950707323030215       -41.151053338638775     
 H        114.35377720124457       -49.205279562812549       -41.460799314992023     
 O        134.16439160357550        82.249287730278965        67.299451255233663     
 H        134.71040726297457        81.442638972352910        67.073210938253268     
 H        133.22071051886786        81.972770214496421        67.481120294025203     
 O       -149.30382723722980       -14.345607678521164       -34.824223405117024     
 H       -148.31248260779921       -14.265070339954187       -34.720543306758465     
 H       -149.74432458456053       -13.522000905868769       -34.466965043618387     
 O       -128.30704623921707       -60.691003323935682       -39.453866902741247     
 H       -128.22885423726478       -60.545081127190379       -38.467665745102650     
 H       -127.47729945710225       -61.135122390791949       -39.791917339584352     
 O       -64.493706857424542        106.15834963785527        15.875407587295513     
 H       -64.952218996394564        105.44382973951289        16.403827811444746     
 H       -63.525735744294373        105.92868240419558        15.773995301286103     
 O        17.133456459686922        16.985140565212316       -100.57860655291103     
 H        16.339902624256748        17.548139469859006       -100.34772878516219     
 H        16.938129135128644        16.456569146760735       -101.40471735522630     
 O        58.640811341491045       -3.8056687489655188       -75.311775304013693     
 H        59.067419773660220       -4.5871654724109181       -75.767042386994959     
 H        57.649470866270036       -3.8478844254563285       -75.436119442082244     
 O        128.39599847452067        94.393166233386339       -143.54894490597729     
 H        127.66807226053439        93.779468422868518       -143.85472002654345     
 H        129.22312415977379        93.862702310324110       -143.36328205845794     
 O        70.648433220850606        4.0944960033555411        23.273448241046626     
 H        70.926421824545457        4.5632179039922756        22.434984099846019     
 H        69.652761715359745        4.0029902920469276        23.289712427976109     
 O        118.63161040930277       -69.777147428529361        22.187120550412715     
 H        118.13987341226519       -69.158189691830231        22.799563238282175     
 H        119.36458990841031       -69.277051408660270        21.725986523665437     
 O        46.062105969826966       -86.802619855428219        14.834243365513576     
 H        45.120536691329377       -86.475966492726513        14.752116181066507     
 H        46.517107994301007       -86.734711655742160        13.946346299427130     
 O        91.966100228299140        92.433799983309569        53.168602954312853     
 H        92.146107324211187        93.372792072910656        53.461675131579675     
 H        91.561996263908014        92.441782215373223        52.253924958644625     
 O        123.28301755789822       -127.66716737966081       -79.699868134215635     
 H        123.58169178843525       -126.90206097047079       -79.129424546619603     
 H        122.33635991417891       -127.89963869244858       -79.476718049869802     
 O        118.93555055186343       -73.197373304720855        78.652360854298124     
 H        118.83038082375664       -74.052288618125303        78.144365642513094     
 H        118.03613272154591       -72.866687024349559        78.938181980714859     
 O       -86.793390413690489       -114.67307251638222       -44.735740792306579     
 H       -86.464493711860939       -113.83809935449047       -44.294552874922019     
 H       -86.992185728168224       -114.48567257202760       -45.697697781793423     
 O        38.732184349364708       -114.84574667689924        89.784988934345023     
 H        39.427057403344733       -115.24599798212023        90.382442138806567     
 H        39.051690208251451       -113.95969658426665        89.449085964266146     
 O        143.44385595689562        126.03348385404745       -61.958258088538045     
 H        144.17417465887939        125.39727743856190       -61.709509238434663     
 H        143.84075459068316        126.91996616927818       -62.196207967936452     
 O       -114.18855933926794       -113.73534842506413       -36.734721313985531     
 H       -113.55743496636924       -113.19607323911434       -37.292273374112710     
 H       -113.93599296354350       -114.70159020422581       -36.785580097699857     
 O        85.324001840042229        119.23167621461926        97.213460377083834     
 H        85.927173346041712        118.47887682687983        96.949875066094265     
 H        84.589256373774333        118.88217248430082        97.794834446093844     
 O       -65.448841911351238       -92.116929295677522        73.029946122155863     
 H       -64.522487077910952       -92.310129046111172        72.706618766378156     
 H       -66.106087662340656       -92.647863156005940        72.495028535430464     
 O        55.617489973015338       -107.23724312180056        90.440316247193508     
 H        55.705635290264141       -106.77630819609253        91.323361771110385     
 H        56.526858256553339       -107.40498942221443        90.059645694855107     
 O        45.365113334274348        6.7499422105899134        21.267207156706561     
 H        46.337644285661213        6.5417788822002212        21.371378061033464     
 H        44.896316385337606        5.9615823855044576        20.868813164929790     
 O        67.963585522001395       -146.15138804606551       -125.02892279596186     
 H        67.623510254039388       -146.68523807950098       -125.80310168609097     
 H        67.196403747145055       -145.88349336529586       -124.44611568364374     
 O       -115.15154180258604        19.444655215596534        106.84183821521175     
 H       -115.26102982562409        19.006098146078688        107.73384722278237     
 H       -114.23715668806565        19.844253208244670        106.77686997343066     
 O       -23.715663415824530       -37.928844580705416        108.85703501596491     
 H       -24.462253552406523       -37.363651827532223        109.20797706206226     
 H       -23.186688595588993       -38.295152851588021        109.62254364169344     
 O       -81.468091223609846        99.934681420888538        148.02839593768974     
 H       -81.875162211725879        99.357240545464180        147.32068466462468     
 H       -81.662779788646176        99.545618936782560        148.92879935390405     
 O        102.00845798777694       -130.00121778368813        32.499752666746581     
 H        102.03057078026906       -130.70266558709116        33.212130378013065     
 H        101.45724881027252       -130.32456548364394        31.730588007266451     
 O        113.54166698906194       -12.077999593246222       -51.303110078615774     
 H        112.76993470640697       -12.692584760886907       -51.466555346593239     
 H        113.49089916265856       -11.304047203673823       -51.934315189734534     
 O       -53.227620437265450        126.65550379610733       -99.691672199104985     
 H       -52.736857899246601        126.00796812935118       -99.108705912295889     
 H       -54.104459650410561        126.88569869293273       -99.269578762065748     
 O       -54.804457524848353        100.41034617294900       -91.020744593352902     
 H       -54.476885939232979        100.96797975645431       -91.783464491378695     
 H       -55.757113701941350        100.64184610858879       -90.823631544900181     
 O       -118.84303602717674       -41.097474340235038        29.042274286339325     
 H       -118.52539075263196       -41.144338007319035        28.095223455461266     
 H       -119.50234093810612       -41.830548434912764        29.209363998655284     
 O       -97.304752337171919       -18.325826594875387        27.289000793035701     
 H       -96.927856811509088       -17.417769358197486        27.471707710398533     
 H       -96.557196331378037       -18.973879524594398        27.143443298178443     
 O       -35.333502074217051       -34.088994631880389        67.159236290954794     
 H       -34.738841096286926       -33.459543307348973        66.659066968252148     
 H       -34.801795226236422       -34.879671484870805        67.462744952743336     
 O       -22.896102728386310       -92.103879660031964       -141.89822727014229     
 H       -22.780530012535177       -91.111470331267370       -141.85619547822475     
 H       -22.885313446526709       -92.480235165238753       -140.97181500180679     
 O       -18.206438643263539        49.938798391667532        27.879003070709224     
 H       -18.209216764374137        50.921479487119491        28.064287033006135     
 H       -17.958500458063579        49.780519678752057        26.923244695813889     
 O      -0.44384778147975623        146.92669068684614       -61.877046158789710     
 H       -1.0881306414914942        146.56819223636117       -62.552604044758759     
 H      -0.48594569724502268        146.36942203233653       -61.047782040420742     
 O       -132.13132595296389        141.71168230519660       -65.771800368902433     
 H       -131.29982805395781        142.11661205620800       -65.391480581494079     
 H       -132.10620647474724        141.77406106408148       -66.769536540482434     
 O        148.13563893209283        39.103642105821777       -143.34901148116640     
 H        148.22052440544462        39.825203665293941       -142.66188458436645     
 H        147.58687882406338        39.436518060314505       -144.11585925522658     
 O        74.056040588285498        27.426807630590449        12.207828071314658     
 H        73.506505819853686        26.896051062314047        11.562607951110671     
 H        74.560452703379880        28.134298027162519        11.712827745325564     
 O       -60.535653231410350       -48.653966741254550        32.054079332455359     
 H       -59.626588539851213       -48.820810276678763        31.672288000380302     
 H       -61.226154881271214       -48.795066350301717        31.344644389919285     
 O        7.5690612573140381       -9.1222791795966174       -116.02332021455517     
 H        7.3407894683231367       -10.092028670276726       -115.93684527207722     
 H        7.1084248220188107       -8.7416392899262814       -116.82514744949751     
 O       -39.675741112492183       -138.72752064398429       -130.29943227264783     
 H       -38.957867313870615       -139.36139685086260       -130.01158133273933     
 H       -40.570959041262746       -139.14607989182960       -130.14648593605901     
 O       -122.79354192161233        27.164356381074647       -79.924372002170969     
 H       -122.76199810068147        26.979660688459546       -80.906661413948640     
 H       -122.73677038247894        26.302095971454964       -79.421099169433177     
 O       -40.894088039586087       -126.96130299537531        38.996812317279215     
 H       -40.896640400395341       -126.49585482349492        39.881883774703702     
 H       -40.423779779166694       -127.83954387890265        39.083430193652347     
 O        142.06160128441306        54.831082944848077       -103.78207293914896     
 H        141.67772954188973        55.235784692025376       -102.95209764968322     
 H        141.34184232288013        54.734723033879639       -104.46957666326702     
 O        50.545461922486204        55.248080152609859       -17.137592699381361     
 H        50.874768066663904        54.729157818369728       -16.348747293466115     
 H        51.191668844207818        55.149975068784798       -17.894422649021145     
 O        137.10187139460047        54.759166123680153       -65.265782468276612     
 C        138.17946856704563        54.113082311922241       -64.625891819710375     
 C        137.79202036967791        54.231442540335713       -63.151539166961705     
 H        139.05706217236420        53.491643900892115       -64.804059697129460     
 H        137.92604630472647        53.057972881186309       -64.728951011587981     
 H        138.47718232800784        55.069752081242243       -63.025482811771354     
 H        138.16850329035691        53.691198260487205       -62.282921464594303     
 H        136.85357486843765        54.686084831642169       -62.834174244568715     
 H        136.66704521884918        55.228933890704511       -64.570606614438773     
 O       -131.81248135462127        96.419807684594147       -141.56437034423539     
 C       -132.50614551439293        97.286359402633806       -142.43386338814707     
 C       -132.31636870627494        96.850819847504482       -143.88718064635290     
 H       -132.28070122808651        98.310870954689392       -142.13780430482052     
 H       -133.54112157160822        97.364086533378000       -142.10087238971818     
 H       -131.30303868561853        97.057371939834866       -144.23156198163895     
 H       -133.07567655174998        97.434501283124078       -144.40763002911356     
 H       -132.42896266586868        95.776324550866647       -144.03168851114015     
 H       -131.80921949734824        95.494953304328561       -141.75842899877929     
 O        79.207218863635873       -40.220406710683918       -37.192772911064203     
 C        79.138726218194918       -39.939048577185076       -38.572717241969258     
 C        79.684494469504202       -38.534236695998779       -38.830557491621292     
 H        78.108956364148199       -40.087755465901786       -38.897617741382966     
 H        79.809642811053166       -40.658478569210892       -39.042175825393599     
 H        79.549020391824001       -38.302982676839441       -39.887093507595267     
 H        80.737985678092187       -38.374974532846750       -38.600575278402800     
 H        79.028830259820239       -37.839169040412806       -38.306071589211854     
 H        79.108974753209878       -41.110928742823141       -36.892200737597236     
 O       -31.109703603749455       -9.1283614838963967        145.10468900973467     
 C       -31.305921126429656       -10.477425778580368        145.46472263677813     
 C       -30.425412813881323       -10.975085883092975        146.61140503652553     
 H       -31.391231511986973       -11.230703629046094        144.68152748519873     
 H       -32.352775729131729       -10.608982816816223        145.73837960707019     
 H       -30.567822870497771       -10.312186177890995        147.46485881858752     
 H       -29.369894486882636       -11.054199648816113        146.35117041786401     
 H       -30.660125836611442       -11.978535858571961        146.96650785121827     
 H       -31.890731258497272       -8.5991580995685073        145.15913720849036     
 O        92.049687710389605       -122.45170370452226        120.83627439626505     
 C        91.010519258813048       -122.10161603824068        119.94989549581362     
 C        90.568101168814010       -123.34225004838007        119.17340693794061     
 H        91.380627704336206       -121.27399039733390        119.34478760096363     
 H        90.194971714494898       -121.72727950740487        120.56864772048499     
 H        90.174201941549455       -123.91399264652392        120.01367701415064     
 H        91.400876431032344       -123.95251838010917        118.82389598073586     
 H        89.755787641975729       -123.23694472561077        118.45427024115256     
 H        92.139237885833097       -121.92334666245328        121.61463461363672     
 O        114.25936305321490        142.54652790164033        93.333748557884547     
 C        114.95772634880709        142.91488797677459        92.165544996653111     
 C        115.69579292198280        141.71016774820311        91.580952912861889     
 H        115.49942587043813        143.83738002816617        92.374518843297068     
 H        114.26731089007895        143.41450901522995        91.485982445197820     
 H        116.30432233428915        142.03718467951515        90.737832588623320     
 H        115.05558375772917        140.85983363276944        91.346082523676316     
 H        116.29757367497751        141.33450140217363        92.408500364863571     
 H        113.75335212326415        141.76737046485638        93.160856528814989     
 O        131.44635207238605        25.008043565432139       -79.768175641021870     
 C        130.62706119115381        26.003041846526145       -79.196475656283653     
 C        130.28759583109039        25.719243571056712       -77.732896891017404     
 H        129.75479910627107        26.305540228287580       -79.775918157012924     
 H        131.20636022460550        26.908426572355840       -79.377558728307434     
 H        131.17342708686897        25.921148917805755       -77.130703218900081     
 H        129.91826917324673        24.709018559257260       -77.556422449106648     
 H        129.49331719690653        26.340138067546128       -77.318515978282818     
 H        131.75438089934221        25.301624592832617       -80.611948980211480     
 O        66.097577689865702       -58.904796663209325        13.148445881790892     
 C        66.580756347730116       -57.962292566764432        12.217680384250562     
 C        68.026691987558479       -58.391624961468963        11.967111391094189     
 H        66.559588278387309       -57.344402189786280        11.319981424666054     
 H        65.910785159801222       -58.012039408252754        11.359330916889547     
 H        68.563572648414805       -58.413488599390142        12.915468463871173     
 H        68.539644452030814       -57.818567863200514        11.194722037920020     
 H        67.940521718264051       -59.379236230678508        11.514012363122859     
 H        66.351254739775513       -58.778984415954611        14.050024640974351     
 O        89.729569830179173       -140.16775149366586        105.72052305323129     
 C        89.157481372724277       -140.82520101050150        106.82893404634686     
 C        88.113387453348835       -141.72230166458263        106.16341222254908     
 H        89.277305472319071       -141.00358768069441        107.89754080675851     
 H        89.875798569238171       -141.61773046639794        107.03873732951052     
 H        87.420172934331532       -140.93061788584242        106.44764878740639     
 H        87.524972286002196       -142.58888183470265        106.46491907858871     
 H        88.340059140116864       -141.87799267961344        105.10867039663027     
 H        90.076289708036384       -140.69260654241339        105.01530143564175     
 O        44.013635449127960        137.29802893178132       -114.62062382314450     
 C        44.362075370423199        138.65648801259755       -114.76649550304077     
 C        43.849489925799460        139.31371091526398       -113.48463934412463     
 H        45.011195454341959        139.50162617490179       -114.99559074658366     
 H        45.441318864300840        138.67873635751209       -114.91761943552228     
 H        42.826516296890880        138.93741053827731       -113.48943326586202     
 H        43.909082441181305        140.40049170578610       -113.54342904228538     
 H        44.442008042437109        139.06512432711784       -112.60416955197849     
 H        43.604206996403121        137.24437426855516       -113.77061526728984     
 O       -109.30509381083630       -112.72890958973413       -139.53014888359343     
 C       -110.68800788284999       -112.70872608169492       -139.80445034963500     
 C       -111.04377494497149       -114.19505571362323       -139.75867893102847     
 H       -111.55124919403944       -112.05004640548513       -139.89961099489659     
 H       -111.12372820187900       -112.45448807289713       -138.83821498032523     
 H       -110.74000130485381       -114.48104018170994       -140.76567171140658     
 H       -112.10706161829842       -114.34405804630565       -139.57074347199676     
 H       -110.55526075257107       -114.73203200782500       -138.94559196961708     
 H       -108.89214188529429       -112.78445836968712       -140.37832932798437     
 O       -19.882923856215484        133.74079341129809       -109.66378385110309     
 C       -18.942197618507656        132.77361794792776       -109.25426490313801     
 C       -18.968344198170396        131.56927366278828       -110.19591886994560     
 H       -19.055400481524444        132.62832409424325       -108.17993961011452     
 H       -17.971064000814824        133.25478252400805       -109.13816107800872     
 H       -19.793360628234034        131.13150922015427       -109.63394895696834     
 H       -18.371893881916925        130.65703536857544       -110.18294585368766     
 H       -19.406679214704756        131.62286122811969       -111.19245830816652     
 H       -19.548514212704813        134.47777131177170       -110.15169653832622     
 O       -101.23113431537567        42.209937137371874        124.18660596850732     
 C       -101.12175160225597        42.947263874271286        125.38347049932267     
 C       -100.51101411641120        41.919309357434422        126.33643966392317     
 H       -101.19076602490235        43.951584494584743        125.80141442908320     
 H       -100.20864938250106        43.522863899073570        125.23171774440991     
 H       -99.532271513352029        41.590496477577453        125.98709025616628     
 H       -101.25808854868768        41.125598413821550        126.33479250553425     
 H       -100.31404894409253        42.319549069587367        127.33098124622549     
 H       -102.10690577923377        41.862302318432747        124.11449909251276     
 O        48.300836577255154       -56.087911792415881       -58.514262111767891     
 C        47.258205481164325       -56.695218215623214       -57.784742197169564     
 C        45.911538806446472       -56.618993871213100       -58.504825324665461     
 H        47.183394883862832       -56.427572242865701       -56.730764476749549     
 H        47.647904222011242       -57.700069702889088       -57.621928405311422     
 H        45.501863830139882       -55.762741360286462       -57.969010009406617     
 H        45.232903982966022       -57.429187603960294       -58.238102856438189     
 H        45.907868928286199       -56.360471622939649       -59.563717597135678     
 H        48.718455986764994       -55.388502897967129       -58.035256628522312     
 O        28.792671854824398        25.208571048469079        35.346998985888781     
 C        28.015484510641929        26.365335775788118        35.561417260582864     
 C        26.673029505490380        25.770560393307420        35.987912047817716     
 H        27.754908093132549        27.324069710916987        36.009780059595919     
 H        28.535650616373413        26.824963085689479        36.401815920600455     
 H        26.534880296253686        24.825645200339981        35.462412215051430     
 H        25.826030943041133        26.436274820673358        35.822027395162181     
 H        26.591406288094522        25.539664772787578        37.050044302452342     
 H        29.713479305178637        25.401998749172236        35.259110476508852     
 O       -139.26999356841918        52.705961021748273        116.76440510457928     
 C       -139.13700556382756        51.538937914489928        117.54445078129302     
 C       -140.20102506245382        51.360915044139823        118.62796882828441     
 H       -138.15157938948613        51.254175978398237        117.91315923253853     
 H       -139.16256553448869        50.677468033434963        116.87713055618946     
 H       -140.21043753667058        50.283993936587670        118.45988452313051     
 H       -141.28493643589158        51.459092185590912        118.56799076757189     
 H       -139.95809772835511        51.399056231145074        119.68986883582257     
 H       -139.92380122515848        52.740309062048155        116.08295020076734     
 O        123.62469499414640        32.687611859730922        50.382405069509062     
 C        122.58722869805672        33.641824614750895        50.347167300220775     
 C        122.97341554896504        34.999512875178546        50.934860505628535     
 H        121.50299579915195        33.732177980514614        50.281021123391668     
 H        122.50925190015903        33.913658568592474        49.294491723081421     
 H        122.18057121966957        35.732846429836897        50.787484227798650     
 H        123.88767347515375        35.238364499924892        50.391553661075626     
 H        123.11172794150353        34.975915942381093        52.015792016114453     
 H        124.52355126984506        32.976245065646417        50.424515574592427     
 O        100.66807607898286       -128.22606810858278       -50.354479331816044     
 C        101.62230222951561       -129.15883094364020       -49.898951126303004     
 C        100.82214363146903       -130.46173581176572       -49.904062152315760     
 H        102.68314781808030       -129.29212560658431       -49.686962457605851     
 H        102.20066118410176       -129.37338635982670       -50.797598356016898     
 H        100.24764536634235       -130.52593085215088       -50.828145882454535     
 H        100.21997249180200       -130.62440106428957       -49.010177419391901     
 H        101.57814470067167       -131.24326527798033       -49.828074387962936     
 H        100.44175902448484       -127.64201143508858       -49.646889465397585     
 O       -114.06518774579617        45.346531918805248       -102.72189232241000     
 C       -114.81525961300410        44.205956210210495       -102.36893446800416     
 C       -116.24010638394864        44.643389482277833       -102.70996937208000     
 H       -114.73065628772240        43.157027498056706       -102.08487309872918     
 H       -114.68410844548939        43.552403678602403       -103.23135455739535     
 H       -116.40377766334278        44.527833240517722       -103.78139760992595     
 H       -116.50972592094190        45.631476737848956       -102.33702317756276     
 H       -116.87422341064658        43.983542349596391       -102.11785669485073     
 H       -114.49340818273343        45.980928941970575       -103.27614199557266     
 O       -33.536368688207041        22.326722074015791        108.51324821819848     
 C       -34.042455914378330        23.641693243259265        108.56641346591447     
 C       -35.334614978320104        23.869259673604116        107.78131508530609     
 H       -33.357870585072909        24.481173516382203        108.44510466458114     
 H       -34.212142631597459        23.900231760350721        109.61162359028032     
 H       -35.625549383704161        24.814419425290879        108.23971471041628     
 H       -36.139567473306691        23.193130839264441        108.06941448389929     
 H       -35.260561536480900        24.047824973911368        106.70859397204637     
 H       -33.277507922012568        22.005960455829726        107.66287881973886     
 O        95.155422317620037       -78.949625763059089       -43.761680235664123     
 C        94.545604947835244       -79.840931692909848       -42.855150306389369     
 C        93.872189053148901       -81.040226172634846       -43.523016148969262     
 H        94.141968931514057       -79.897976808082873       -41.844247814729250     
 H        95.382337706885494       -80.346181518406169       -42.372759537463097     
 H        93.201152103346516       -80.684915430551769       -44.305041524971273     
 H        93.305908690967797       -81.754363722716107       -42.925158228930655     
 H        94.642262263287051       -81.556441604019739       -44.096260375242991     
 H        95.306081320661733       -78.058735672943968       -43.484837791901072     
 O        57.819364175039588       -2.1478516715728357        25.983339224780241     
 C        56.776851076785022       -1.8558976428756639        25.079995832102153     
 C        57.038727859713987       -2.8589228950294330        23.956073286690192     
 H        55.845294871884484       -1.3008729551695146        24.969313130239165     
 H        55.926355494636944       -2.3835504418208617        25.511666701410288     
 H        56.661888662920468       -3.8373970421586523        24.253866108500372     
 H        58.051498461391752       -3.0134475517829626        23.583893461105404     
 H        56.372315009734322       -2.5947509978585712        23.134972082878996     
 H        58.628929281533360       -2.5128054297709297        25.660170354779559     
 O       -80.452590939794476       -92.859571654839215        37.001268743824888     
 C       -81.119620192864602       -92.467277970227499        35.822592521015707     
 C       -81.553993323083574       -93.616649046258786        34.912588612602967     
 H       -80.726212543522394       -91.634201534486920        35.240085783324211     
 H       -81.997904672086932       -91.886537548727233        36.104473499255455     
 H       -80.571186203337518       -93.879235049213747        34.521131390700759     
 H       -82.095732464010027       -93.284914578808483        34.026828527774889     
 H       -81.959846752691746       -94.515543257379647        35.376670776036583     
 H       -81.107857144045781       -93.313015410131428        37.509245109974032     
 O        87.290689482113038       -85.077571801076502       -76.709254956086241     
 C        88.161541727853418       -85.722400823280026       -75.807084296946314     
 C        89.057094677133918       -84.680626074842394       -75.135868025888044     
 H        88.680792877381791       -86.496438377372883       -76.372189717121273     
 H        87.527266538503198       -86.213338105907212       -75.068995196905732     
 H        88.426415064663388       -83.867135220257140       -74.777293267408780     
 H        89.831220066878188       -84.234216560622812       -75.760006159679094     
 H        89.457551482746027       -85.142379009217549       -74.233361162087022     
 H        86.971675017936846       -85.636952736006563       -77.400881854851647     
 O       -119.49193514621768        2.4121034495993361        31.999505116184398     
 C       -118.88064659352199        3.0939707371669520        33.071644709468956     
 C       -119.53257600792149        4.4616390339290959        33.277344642996177     
 H       -117.80055414364516        3.0181170845894010        32.946159449563972     
 H       -118.87588272376944        2.4425891729916991        33.945589395530334     
 H       -119.77482963110909        4.8929653011184104        32.306071851836592     
 H       -119.01530978952307        5.2361302903834090        33.843647509596266     
 H       -120.51977941138651        4.2805489127481984        33.702475061774770     
 H       -120.19253934476664        1.8727400486542891        32.333070558802874     
 O        25.192964999840342        76.373367484463984       -39.316031943932011     
 C        26.196324353069159        77.008334486207104       -40.076417972692973     
 C        27.111153697261862        76.040274530712992       -40.827276277283580     
 H        26.750689366419731        77.943094462203092       -40.160103370046173     
 H        25.658742738243880        77.442912515423913       -40.919180035259309     
 H        27.901266416904754        76.197126485415069       -40.092960708392752     
 H        27.700553261670798        76.120395605525601       -41.740670358951697     
 H        26.877587217368525        74.978199365379083       -40.901728316743302     
 H        25.588465768432453        75.956054188729766       -38.566062756861285     
 O        69.036829769267470        112.59432708691990       -68.962463146763668     
 C        68.343001878410178        112.83407388884750       -67.758625812371349     
 C        68.563981764892773        114.33346264183166       -67.556531138530701     
 H        67.648213167960833        112.38941608888830       -67.046131521608189     
 H        67.306519780549664        112.91193040425537       -68.086868366377658     
 H        69.601190971058386        114.54795306694990       -67.299060906603387     
 H        67.863758028425138        114.56738141362155       -66.754615489180651     
 H        68.391193964508034        114.91860571346396       -68.459776412687972     
 H        69.051431298457075        111.72282921809546       -69.327570372350635     
 O        54.896471903255438       -34.250608231858102       -113.50243742228569     
 C        56.179661016090726       -33.996274409169040       -112.97628154487163     
 C        56.062748084610476       -33.689852322564576       -111.48287005928759     
 H        56.617431604933856       -33.206390850189187       -113.58664283307802     
 H        56.760216729719126       -34.904961865833755       -113.13547363126720     
 H        55.681892114366789       -34.578695388849667       -110.97987231083840     
 H        55.408752600317065       -32.862033042685596       -111.20881690774736     
 H        57.077776943346009       -33.568116557014619       -111.10472077118423     
 H        54.245127534422188       -33.614204288626027       -113.24991898723475     
 O       -99.563647756123373       -75.188336654019054        76.595743986550346     
 C       -99.767416332534069       -74.214480356676205        77.594834711938034     
 C       -99.714896405574791       -74.881240129525821        78.969794370466857     
 H       -100.70138469303359       -73.707609369469893        77.352172540591681     
 H       -98.956423784024139       -73.494012403351562        77.488453492321398     
 H       -100.67575668934093       -75.352510716390086        79.176558848045289     
 H       -99.456116617004000       -74.297189187585829        79.852980364370282     
 H       -99.050707034966592       -75.740740348585760        78.879174742705970     
 H       -100.17699936886058       -75.907127325045849        76.582906667766721     
 O       -48.960705072703306        114.49715332243738       -89.887250170338902     
 C       -47.663083786331008        114.92706676929487       -90.232870518936352     
 C       -47.903433038190450        115.61894314554829       -91.575025618428853     
 H       -46.650086325740020        115.04681263117881       -89.848686837943021     
 H       -47.546359794976816        115.84056005448713       -89.649770631568558     
 H       -46.816730920472899        115.58893592840951       -91.654259916346234     
 H       -48.076161972466032        116.64391984515659       -91.903183301824782     
 H       -48.502949609639401        114.99648713895732       -92.239275921780731     
 H       -49.274912950359855        114.74318698615330       -89.030648820964643     
 O        122.53610062649535        91.329558776716325       -59.554940450578123     
 C        123.90234292718182        91.011594659672312       -59.697701769374511     
 C        124.75667650404962        92.277684895127237       -59.627198896227526     
 H        124.00275658834042        90.332501600547374       -60.544371562681320     
 H        124.15938445430551        90.233988547664481       -58.978425510235923     
 H        124.59407921677818        92.912066309737085       -60.498532553973163     
 H        125.76793386232657        91.874940301805097       -59.570143401650817     
 H        124.50366082999722        92.920077578074881       -58.783744823318010     
 H        121.96304590617294        90.627596748348680       -59.286831098553094     
 O       -53.399076389031066       -66.015344911455401        79.216463089120111     
 C       -52.634321951745285       -67.053313123143241        78.645610531818974     
 C       -53.114042071475140       -67.041343549031055        77.193864572636514     
 H       -51.792438841341387       -67.721268601466463        78.827732289822649     
 H       -51.674938148553423       -66.572083645490807        78.455608271546026     
 H       -53.991379416974731       -67.680693611284937        77.291898653118835     
 H       -52.358067892791041       -67.447235819890409        76.521663346241638     
 H       -53.298609123547948       -66.038994510951682        76.807430264658635     
 H       -53.676694460669317       -66.145179811133715        80.110384859152632     
 O       -5.6889329475255428        109.98716427893909        140.40190314307964     
 C       -6.0418096559055190        109.74915097847183        141.74612325018012     
 C       -6.5535738193657060        108.30946311371405        141.68922603524740     
 H       -5.8816012862715317        109.66998597238830        142.82137494507742     
 H       -5.0722959131312022        109.81094403994224        142.24041533937861     
 H       -5.7545362910896305        107.67721623295442        141.30205306314448     
 H       -7.4639646033486162        108.19067036708566        141.10170847349426     
 H       -6.8338319916994035        107.88484195188197        142.65320336345232     
 H       -5.3335007865197053        110.84864292571179        140.24522657749566     
 O       -37.049318949737881        71.463926902164161        116.89490692675928     
 C       -35.649941354240596        71.349632078653343        116.76537299862125     
 C       -35.226978035521434        70.779416518115511        115.41119529997189     
 H       -35.121925325155729        70.883818263907173        117.59742864000874     
 H       -35.317148459060171        72.366882720570899        116.97164944258195     
 H       -35.724952854138323        71.600469160847339        114.89544958928896     
 H       -35.582365497765736        69.947511871999950        114.80313741129169     
 H       -34.179045301508992        70.734493636262570        115.11468394194192     
 H       -37.179666849671655        71.900377849659108        117.72288338851790     
 O        63.117953470936250        86.107628052775055       -13.259333266501157     
 C        62.351519153943499        85.806322675871300       -14.403839058354020     
 C        63.002304376975232        84.542828836823119       -14.967667849878085     
 H        61.441642953321626        85.652744924909413       -14.984045229723376     
 H        61.321925903948248        85.702754270042860       -14.061331721533762     
 H        62.753295498367372        83.668859552941257       -14.365777269366598     
 H        64.062519062515520        84.794744916981585       -14.943520559655004     
 H        62.646343326770051        84.284884977419821       -15.965092915410404     
 H        62.824166535019792        85.735156566024202       -12.442033288735875     
 O       -126.22100864100850        102.15290999230288        15.227646065397378     
 C       -126.18772764322304        102.90081019810384        14.032808145385399     
 C       -127.55169148979543        103.44000996574208        13.600711818367529     
 H       -125.59492663340205        103.05697146901443        13.131530914615542     
 H       -125.70278897890461        103.83520949415993        14.315354420455769     
 H       -127.62668896439881        102.49437491998803        13.063822873430439     
 H       -127.91243737641301        104.11351761091862        12.823312410882455     
 H       -128.19782934182930        103.61658376223477        14.460611599789603     
 H       -126.53975545195919        101.26340641363454        15.213193363114531     
 O        138.92099651744905        86.870186764688555        79.420412777892821     
 C        139.78569820311114        86.087678528874065        80.212922622966317     
 C        140.91531178453656        87.071605603660700        80.519029905076863     
 H        139.86331197260645        85.143536972416996        80.752063467048856     
 H        139.32080171732022        86.133466028777562        81.197744796147461     
 H        140.79958028360323        87.416732069601323        81.546450920216174     
 H        140.96851570765196        87.958456767755720        79.887552006105466     
 H        141.84239075137174        86.498347936970291        80.519577957078965     
 H        138.29054872105195        86.366696981123724        78.928418225086048     
 O       -60.944600289701654       -62.702160560107913       -138.75928640239289     
 C       -60.885850005896813       -62.752217146633583       -137.35140049065831     
 C       -61.803792184402155       -63.865570291486634       -136.84576432525213     
 H       -61.118909264423095       -61.749751804078187       -136.99244834276300     
 H       -59.848106226159047       -62.967634943788923       -137.09687550234111     
 H       -61.637256816968382       -64.577584612515864       -137.65409691657442     
 H       -62.863296294598896       -63.626429354982605       -136.93721176668754     
 H       -61.536232510760584       -64.371986417214984       -135.91837304204336     
 H       -60.626157401289838       -61.862704296787165       -139.05412930125502     
 O        69.015515121907612       -38.996591882519226       -45.481750825666275     
 C        69.663106998923141       -39.913287768160238       -46.335210499038347     
 C        68.706389194144975       -40.796447454455674       -47.136809528793044     
 H        70.612642034886349       -40.427338589574838       -46.484324535349550     
 H        70.059565694848075       -39.295036103457583       -47.140620538965351     
 H        67.778071932461771       -40.286883867437325       -46.878600285751851     
 H        68.574226438922153       -41.789830538849998       -46.708063640122901     
 H        68.782365664634199       -40.783169509060087       -48.224077360402752     
 H        68.899564652162468       -39.473416302353861       -44.674150065991086     
 O        123.87852763899856        24.549141062637386        116.68004417192279     
 C        124.66497233677633        23.509826785838143        117.21803168993874     
 C        124.96078090451951        22.481582194675862        116.12576278898291     
 H        124.14403993316068        23.106033320562005        118.08617931208487     
 H        125.60348915592027        23.984152817766265        117.50491310301537     
 H        123.98171626014108        22.007128012407222        116.05923722091502     
 H        125.75215214901546        21.795923671248847        116.42858934696241     
 H        125.33612006838030        22.925593484562476        115.20376791369669     
 H        123.09817150076407        24.810141252894088        117.14474646867340     
 O       -79.024113881540885       -97.675866627640772        4.9174409291913506     
 C       -78.293910394196743       -98.816997454518017        4.5266426425043198     
 C       -78.604315524523912       -99.254825181417331        3.0949315904324464     
 H       -78.288141600740630       -99.652676524823875        5.2264334956714098     
 H       -77.265834821606475       -98.504809081885881        4.7102154784129642     
 H       -78.187914024248826       -98.325314511416408        2.7067052323964296     
 H       -79.527912025516443       -99.172295949968841        2.5219931898239869     
 H       -77.992942000736832       -99.987440625688620        2.5680567582798002     
 H       -79.943311690976159       -97.819360640734999        4.7515798981279351     
 O       -6.2739240498940712       -43.412019577855958       -97.289197420934784     
 C       -7.3079789636631975       -43.496068743868300       -96.334332942067462     
 C       -7.1267651314433520       -42.192841410767713       -95.555486962908304     
 H       -8.3347489488966531       -43.587413671320107       -95.980073815161447     
 H       -8.1938079932164776       -43.464349798389662       -96.968683625676888     
 H       -6.0496127032997071       -42.257257134297063       -95.401560805766792     
 H       -7.5273314694824736       -42.235935087446244       -94.542674281737362     
 H       -7.3163325368518581       -41.252812104562899       -96.073665665517737     
 H       -6.3166976873193539       -42.525277905620072       -97.613056415675416     
 O        6.1648099590185730        118.97852002981237        30.499326435557649     
 C        5.9291767114935627        119.96685290823353        31.476963941264351     
 C        5.3237614538146847        119.23673740194836        32.676232348774349     
 H        5.2740916341887711        120.66122207745101        30.950831805990582     
 H        6.8637020270219793        120.39488064157629        31.839668564728019     
 H        4.8700595694513140        120.16340997272445        33.027704320412447     
 H        5.7640146246606605        118.99332469017789        33.643200486248126     
 H        4.4429609550548586        118.60143894209013        32.583031427026036     
 H        5.3675804445055695        118.57190773063151        30.195819326004212     
 O       -111.44228840468162       -43.146451640886220        95.168049860116355     
 C       -111.05713668224017       -43.825294513283964        93.993771143075492     
 C       -109.53170650793659       -43.794466794664459        94.093538016683581     
 H       -111.43436916660060       -44.432423418995178        93.170855490084932     
 H       -111.17116079258041       -44.873403537993887        94.270476628167629     
 H       -109.10660213659085       -44.353052698532593        93.259650696343201     
 H       -109.03379395139780       -44.150789659952210        94.995323515266250     
 H       -109.22086572820406       -42.773841667159395        93.870373450648529     
 H       -110.66017730155997       -42.691068712747835        95.439994039952310     
 O       -57.786540807264885        108.09170535127453       -95.738034887349329     
 C       -57.139206602701520        107.08927308253458       -96.489159360516851     
 C       -58.147744994781100        105.99958038403354       -96.854208848279470     
 H       -56.283455014212890        106.73526249211054       -95.914297857187123     
 H       -56.821983347646594        107.58363845682786       -97.407349010888467     
 H       -57.618688311055763        105.20684883696390       -97.383147144477078     
 H       -58.992518479151599        106.36240459601720       -97.439714044336554     
 H       -58.633813020343787        105.52213309326166       -96.003396281146863     
 H       -58.253758330099970        107.69330484008825       -95.019696634953533     
 O       -96.129516213777052       -51.802360506237719       -111.45087284415952     
 C       -94.884143047366905       -51.145424013455646       -111.37617265076041     
 C       -94.492959884868739       -50.904172931348334       -109.91788096225636     
 H       -94.899683351892875       -50.314282214176927       -112.08119877341412     
 H       -94.157459351183334       -51.700979253723908       -111.96895349539855     
 H       -93.561638009259639       -50.342252234890182       -109.84727858938720     
 H       -94.415211149519450       -51.918107062807316       -109.52546193520109     
 H       -95.212150558417250       -50.289680891655181       -109.37634207005829     
 H       -96.675549193101318       -51.355574139616380       -110.82217979167994     
 O       -115.41322745189055       -13.095543830019894        134.78225893710336     
 C       -114.70211588219360       -12.443428057580558        135.81044440421473     
 C       -114.43688437933447       -13.505539354238397        136.87787722991550     
 H       -115.38195551308333       -11.637479582418484        136.08678687109114     
 H       -113.71770019936139       -12.123523141488672        135.46885026060045     
 H       -113.78321163725154       -14.273660038455137        136.46459456357428     
 H       -115.26889683743089       -14.025040077027118        137.35324472179335     
 H       -113.80128817794561       -13.043020646305656        137.63298912782557     
 H       -116.22695170234530       -12.662644569831016        134.57374970334507     
 O        77.510512610874741        17.447197288801959        81.018466526650826     
 C        78.536231916003715        18.413120972647878        81.073159695454876     
 C        78.230498211330143        19.349801754143549        79.903973219565245     
 H        79.199259077248271        19.139809814199161        81.542647009636894     
 H        78.483889941953663        18.855812005198981        82.067837993430274     
 H        78.602647482062466        18.714641852926501        79.100121976902670     
 H        78.888816136880891        20.217554003411482        79.862457868550180     
 H        77.186593830132722        19.566952810351893        79.677678886377350     
 H        77.401597828131514        16.950594535620777        80.221881125153217     
 O       -94.273700213890095        43.645409789814501       -121.57982608545457     
 C       -93.372055264195367        43.508727662605835       -120.50444039613576     
 C       -93.872561439976025        44.578480653133887       -119.53337752420504     
 H       -92.851075730609722        42.992964083528634       -119.69780027599167     
 H       -93.605560302472725        42.504681210645685       -120.15022849585196     
 H       -94.674074054776867        43.919250246418017       -119.20007165960369     
 H       -94.442188234677587        45.499184610200288       -119.65958973730515     
 H       -93.274000497256850        44.897676873042506       -118.68018432403480     
 H       -94.582432789425297        44.504468803765526       -121.82421682416123     
 O       -16.733720379162065       -105.18152693470459        23.382132317726995     
 C       -17.165069859639495       -103.92329539341011        22.914274420671870     
 C       -16.972246817706441       -103.69009800154681        21.415515183526747     
 H       -16.915414063837574       -103.02871150290638        23.484793195364603     
 H       -18.221788070601530       -103.81249895863807        23.157524748859835     
 H       -15.890461371894808       -103.75681123417296        21.531228596636492     
 H       -16.933395162730189       -102.75848966076192        20.850983138496051     
 H       -17.147094472351210       -104.47542202553772        20.680127844407782     
 H       -15.894453296988257       -105.01456633231153        23.783106067792378     
 O        62.018124700872207        116.64233956504390        12.275034846294234     
 C        61.986672418924741        118.02084254499150        12.569721609206784     
 C        62.154038025343873        118.08249110059701        14.088283166523567     
 H        62.245301214233770        119.07312562296906        12.451774598296009     
 H        62.783535295967631        118.47554690175996        11.981203594168965     
 H        61.260527954195069        117.47322104723006        14.224407209319804     
 H        61.836445454714067        118.84692697846171        14.797418366645527     
 H        62.893898980673107        117.47909974263541        14.614234401643877     
 H        61.775173764031322        116.45748073155988        11.380704325857987     
 O        51.994475888258798        26.873986976182092        29.540856805888268     
 C        52.487404698576199        26.711795460806101        28.229820917630772     
 C        52.923423323959661        25.250263998942717        28.121864730763804     
 H        53.280091566827075        27.458708701317811        28.186598615579499     
 H        51.694699678464815        26.833153274982138        27.491585871777517     
 H        53.173123305970293        25.389038694053625        27.069965732198799     
 H        52.329750549505398        24.353618825863794        27.943875813119817     
 H        53.878684448150608        24.900579423670585        28.513396272576450     
 H        52.582892274462161        26.456727566951685        30.151336754509654     
 O        144.08411540721599       -54.718574303636110        4.6962649075350482     
 C        145.43697387052651       -54.626299618651252        4.3097945224997964     
 C        146.13191273146683       -55.979696245532217        4.1574181795123417     
 H        146.28572636562586       -53.942420287235905        4.3044758190001877     
 H        145.39638338151423       -54.322702078307358        3.2637157033489315     
 H        145.87286383172901       -56.389490630895750        3.1811691183501973     
 H        145.89425288432329       -56.686548654440479        4.9523882737028027     
 H        147.22077641705488       -55.941295406881991        4.1890617148247404     
 H        144.03110828150722       -54.196421636125201        5.4821223135690618     
 O       -13.054562218241497        142.64795037262235       -123.94384215497591     
 C       -13.690802578184870        141.76588292718068       -123.04648201207279     
 C       -12.958667855887894        142.06300180935960       -121.73745943310765     
 H       -14.526795564595586        141.32726734048325       -122.50165899390828     
 H       -14.706838049350880        142.16042963541986       -123.03624642476986     
 H       -11.960976311771208        142.45990203005275       -121.92502755223975     
 H       -12.949943686012132        141.08922705187760       -121.24777934054347     
 H       -13.441621691521140        142.83739085295034       -121.14149192809337     
 H       -12.113483821335162        142.70289373744103       -123.87767793994004     
 O        131.23309358897430       -97.276796924439211        93.641368006559944     
 C        131.39653737155143       -97.961004951656534        92.419383757304558     
 C        130.11169658029300       -98.786448724899302        92.344099547049183     
 H        131.54775440019395       -98.063001339917051        91.344753507230593     
 H        131.38665871100463       -97.137566015974116        91.705275444675905     
 H        129.47090879295015       -98.028022216794227        91.894343786506070     
 H        129.65127296942470       -98.958177349980332        93.317043204802914     
 H        130.09303574510020       -99.650406826601355        91.679774146896136     
 H        131.09747532419578       -97.963943630986648        94.275767025909900     
 O       -96.965823875224245        133.69520555928517       -1.2445538040726207     
 C       -97.104390638007629        132.82924143582437      -0.14046803386574735     
 C       -96.558427784873828        131.51377662552656      -0.69663158523009483     
 H       -97.323418650457143        132.80113679246682       0.92692921382915383     
 H       -96.232511322959141        133.06969082346146       0.46789904480707278     
 H       -97.556027274058394        131.22458485355938       -1.0271816999721501     
 H       -96.246312775313598        130.57637511900512      -0.23623760399293381     
 H       -95.867112006844948        131.49525051170141       -1.5391512239824428     
 H       -96.053236995288614        133.91411399763425       -1.3554109565564354     
 O        113.96893005030907       -110.13712434753216       -96.815876913490172     
 C        114.74478591428652       -111.03790781143991       -96.057762918445789     
 C        113.87691878300018       -111.65363384356975       -94.959797031101800     
 H        115.62145071856814       -110.50388640790418       -95.691184156317775     
 H        115.02515780694954       -111.82704820291279       -96.755436907675659     
 H        113.14437848956476       -112.30964266270995       -95.430049249812285     
 H        113.38796105916937       -110.91680487748286       -94.322534602938617     
 H        114.41689611839598       -112.27048614743113       -94.241453256986389     
 H        113.14164694566959       -110.42021271478376       -97.174330072100332     
 O        59.478366247353613        143.28361846939512       -131.91839307061389     
 C        58.948004311098977        142.25458699621382       -132.72332191358475     
 C        58.730618395791929        141.06148127153048       -131.79214894707746     
 H        59.716483222014794        142.13936359194966       -133.48769339135086     
 H        57.957638777885720        142.51528496800574       -133.09656798239558     
 H        58.102848307574796        140.32501624445950       -132.29377029868840     
 H        58.305881862398792        141.21081191703664       -130.79947618272115     
 H        59.684900330938660        140.53991664275625       -131.71855282087012     
 H        59.322781637703173        144.14281509688243       -132.27977875206739     
 O        41.093206260347955       -140.97419908365816       -93.756024799883747     
 C        42.000049272068388       -141.86744240279077       -93.149516659980861     
 C        43.324479722817316       -141.11572216882126       -93.286051164666731     
 H        42.410252493407555       -142.48369140973298       -92.349472594998034     
 H        41.645687729040759       -141.87167873096251       -92.118735451544708     
 H        43.664254388478803       -141.82529916579315       -94.040473899009868     
 H        44.235996788729040       -141.18944737489318       -92.692922836122008     
 H        43.404313047715277       -140.17877427174048       -93.837281916639228     
 H        41.133512911115197       -140.82945458555901       -94.689003594052039     
 O        79.048092626691087        125.23944027817757        61.187392267215920     
 C        78.654675985833819        123.98980448038199        60.666111423325653     
 C        77.299113831618698        124.26625497569393        60.015060450128118     
 H        78.775029642589644        123.05083051485289        60.125794001317928     
 H        79.453522314818414        123.67580038978252        59.994288587477918     
 H        76.789754049324998        123.73860684349270        60.821435090674989     
 H        76.774099516315289        123.83513791119314        59.162653254590900     
 H        76.906187226222443        125.27909342447730        59.926364210261909     
 H        79.274699074973142        125.87648144204026        60.527200553148255     
 O       -108.76475507082607       -77.597607995172666       -17.865025181884761     
 C       -107.68900174364857       -77.780624064960264       -16.972075073475089     
 C       -106.53256115157377       -77.125120766883356       -17.727589191948063     
 H       -107.43798362931356       -78.083495432554230       -15.955532469070356     
 H       -107.83052651852897       -76.974173184453107       -16.252556021703924     
 H       -105.99187266183554       -77.854496267012635       -18.330720468725005     
 H       -105.93333524844789       -76.704999287763073       -16.919798228031247     
 H       -106.86044264379038       -76.378012249233365       -18.450377302977270     
 H       -109.53534013484580       -77.807831011281237       -17.360020262484703     
 O        124.35961404408943        67.741835317061160        129.31727604373131     
 C        125.62926897486088        67.952988205143996        128.74152365539138     
 C        126.68633353492804        67.106647316581899        129.45156774993617     
 H        125.77437633390583        69.027763897761716        128.63243153786567     
 H        125.55638360982371        67.802226828671536        127.66446345280939     
 H        126.39700701219773        66.058881332024697        129.37047147998189     
 H        126.84606299839115        67.387456136284371        130.49259267128051     
 H        127.68845919536636        67.176380994067017        129.02850577050057     
 H        123.70556510035081        68.334314431894143        128.97932115917874     
 O        97.571638360875085        113.27567589334510        145.97629782220557     
 C        98.634544326348291        112.86105671113742        145.14779203326566     
 C        100.00313403087701        113.43453046093317        145.51648034733850     
 H        98.493758905980954        112.84856908314330        144.06699438712519     
 H        98.686170894258780        111.77268882352435        145.17762472667016     
 H        100.70110660102716        113.19768183653260        144.71346289924921     
 H        100.38085839467675        113.08443032051805        146.47713334399248     
 H        100.02996180800606        114.51832719820371        145.62946250516291     
 H        97.641357417709116        114.13829386221069        146.35584296934496     
 O        42.397681023794725        104.74744131579891       -44.968950715794222     
 C        41.908468502541290        105.59239229975941       -43.951685291358174     
 C        43.121225691127847        105.71145961923916       -43.028168118294140     
 H        41.473929669347427        106.49849612625279       -43.529486421861520     
 H        41.731181707229929        106.51639424636183       -44.502039491651509     
 H        43.685036712919946        106.59871304447499       -43.316262707988813     
 H        43.818086532471170        104.87334049275439       -43.034593155830230     
 H        42.739262039159456        105.93438692474453       -42.031921537467809     
 H        41.678363091824018        104.45654753288839       -45.508383330327391     
 O        13.942124870495451       -93.359336853531957       -147.86752408289917     
 C        13.887807840049478       -94.671381814068539       -148.38102937180483     
 C        15.307826259972254       -95.223115121089108       -148.51133301329205     
 H        13.314613254988071       -94.621808930035584       -149.30682120810965     
 H        13.314990098772444       -95.256917443790343       -147.66191337803059     
 H        15.299003923346140       -96.256812710325377       -148.85700838424950     
 H        15.696585140683741       -95.110551671808082       -147.49925792464657     
 H        15.904414682725211       -94.701095583492219       -149.25944926189479     
 H        14.623277316349974       -92.782281594001489       -148.17746536567276     
 O       -77.311771239235469       -8.9191892833657036       -20.227269823381796     
 C       -78.710378549393070       -8.7483572235702773       -20.280316947496910     
 C       -79.098465040063374       -7.8802967818539864       -21.477689464839163     
 H       -79.054884483976863       -8.4838172344146017       -19.280599847327466     
 H       -79.186052743665414       -9.7282622619690819       -20.240066162629692     
 H       -78.431371950243431       -7.0197254824591244       -21.527727933272143     
 H       -80.113961678701187       -7.4950306782716689       -21.569540365361188     
 H       -78.824809654201630       -8.4372148368984785       -22.373822866338539     
 H       -76.964054156984460       -8.4152548155191376       -19.507431015683721     
 O        41.933778638847258        116.18210276134899        127.20629435086109     
 C        43.086661621298909        116.64426654910831        126.53893727847978     
 C        43.708366378477109        117.79050671562602        127.33734674081356     
 H        42.782330216059549        116.88938051513225        125.52139044084096     
 H        43.771102579371124        115.79734323768574        126.49034272755526     
 H        44.454982147442884        118.29237893342443        126.72188823522959     
 H        44.177213752011511        117.59587542950871        128.30191959266773     
 H        42.940391456562715        118.55715703973783        127.44011767358590     
 H        41.667205949855450        115.28490540708655        127.07590671800862     
 O       -78.091980995315112       -59.396340455894972        115.70263661806827     
 C       -77.575356598478564       -58.302099296668800        116.42640144040260     
 C       -76.936868611879703       -58.938566023060439        117.66134443145357     
 H       -77.034634940009141       -57.366847101600776        116.57139608522168     
 H       -76.896290301143424       -57.783590777374400        115.74955741838571     
 H       -76.246939788261599       -59.624846408634880        117.17030731313659     
 H       -77.680392812285362       -59.443166529269313        118.27831288744798     
 H       -76.483518111858899       -58.212916740928257        118.33662697136096     
 H       -77.522957903069795       -59.888801111983476        115.13104213899315     
 O        110.89700655347761       -60.564339373520014        65.383170435752533     
 C        111.91655356428481       -61.515030891696654        65.171487819505742     
 C        111.70622324664801       -61.973788194908153        63.728177773738174     
 H        112.93001486763035       -61.915247960370138        65.200167287898353     
 H        112.85651815323108       -61.003815608163499        65.379395145751204     
 H        111.55979946106440       -63.000899285847694        64.062397584769258     
 H        112.38187894197492       -62.154750855164608        62.892210141888384     
 H        110.84510992963702       -61.645306947106683        63.146212146850587     
 H        111.03107257110877       -59.830296115556649        64.803315433042584     
 O        69.191547411923736       -19.653418854957202        64.443464576532023     
 C        69.664275835219726       -20.490272796417781        63.411813803686620     
 C        70.333532903565498       -21.650774488321474        64.148815702977188     
 H        69.612476367239196       -21.051508296070445        62.478844588649181     
 H        68.795207231094437       -20.745520058395332        62.805457022914332     
 H        70.916048091895405       -22.223898549799124        63.427494092548692     
 H        69.667998239389377       -22.352036663242789        64.652199209247996     
 H        71.072358922924323       -21.214352844113471        64.820955811223754     
 H        69.923820122265980       -19.561663021724453        65.033703994734779     
 O        32.406239537453587        3.4985758746056512       -68.765322639659743     
 C        33.197645591855661        3.7969103043640984       -67.637150213642471     
 C        34.495416901597331        2.9921380750497053       -67.559869643408220     
 H        33.141325446036475        4.2186218271482598       -66.633612740895515     
 H        33.607092606615836        4.7842011045974484       -67.850949109934660     
 H        35.125214067411584        3.3373978547683700       -66.739960371237345     
 H        34.935480780957761        3.1625055335918666       -68.542426864506837     
 H        34.333850052232457        1.9367386634323336       -67.340488015479764     
 H        31.735740791566400        2.8355347030578426       -68.703412518075893     
 O        65.866995261574161       -130.32962659202337       -61.207942619050634     
 C        66.357594821469775       -129.00772948898270       -61.207595051962159     
 C        65.088224982100400       -128.19871710070916       -60.939192070421413     
 H        66.980472407207955       -128.17408874327290       -60.883300976128048     
 H        67.016570494009102       -129.01982115966581       -60.339433312769060     
 H        64.302234507667904       -128.56617876828190       -61.598957861035288     
 H        65.159051899457381       -127.12214919919606       -61.094385770983166     
 H        64.754133615090154       -128.45868263990909       -59.934751459090513     
 H        66.416179330703585       -131.01369758922570       -61.559323829154096     
 O        45.570973437398031       -62.192393473799221        119.89125951220524     
 C        44.433667613027332       -61.452461630713891        120.27484304866219     
 C        43.658438959634211       -62.230819442912590        121.33833759266710     
 H        43.859445382401049       -61.224796598479855        119.37676872529238     
 H        44.827279906142593       -60.545357075069788        120.73346123270595     
 H        44.466443046894462       -62.416891718956393        122.04587310690432     
 H        43.226659718480249       -63.143505354488923        120.92764172360360     
 H        42.799371752529950       -61.687452241935134        121.73185466194344     
 H        45.219713123683427       -62.922052584849041        119.40418785476271     
 O       -108.17136651576047       -22.749337852928633        2.2790182110330699     
 C       -107.58127931883098       -23.497732125105035        1.2398824579221177     
 C       -106.21223575455386       -24.078871981990872        1.5946178238369735     
 H       -107.60506406966721       -23.637174590778436       0.15910028202436877     
 H       -108.16678637466036       -24.416496862611524        1.2059296143596892     
 H       -105.81365170433379       -23.076833019289012        1.7532011531589711     
 H       -105.39279049912358       -24.387355504736615       0.94542804119617030     
 H       -106.01003140946257       -24.534137361014480        2.5641264123995997     
 H       -107.88228991070332       -23.171141446529983        3.0737140463350565     
 O        134.12076832249335        112.65776248988931        108.22894186389522     
 C        133.87887154410802        113.27094500854072        109.47537403048069     
 C        132.74476028234250        112.47559415040777        110.12271448063332     
 H        133.64892457474565        114.29687150463164        109.18779927266176     
 H        134.73179453058179        113.15660651791499        110.14436509055700     
 H        133.06151217408021        111.44078473525434        110.25285945188153     
 H        131.76021225007852        112.44533158496218        109.65597115622612     
 H        132.66247666921780        112.82331834377608        111.15248016072080     
 H        133.90647238395246        111.73904086937816        108.28419456412949     
 O       -54.982640638146080       -36.522091183090424        75.107325377241835     
 C       -54.227560326425269       -37.293448299325568        76.014497864746289     
 C       -53.906691043877188       -38.688994712525407        75.478462319187216     
 H       -54.580568731256562       -37.313617600145015        77.045554746187179     
 H       -53.366285979191645       -36.651441218220363        76.199250016304546     
 H       -53.389996738125831       -38.578991526711810        74.525033614451885     
 H       -54.781498423212199       -39.331095817085085        75.375904024100208     
 H       -53.247405394034843       -39.282297620945336        76.112050636711302     
 H       -55.811156785857136       -36.971653489610325        75.040394432595605     
 O        54.917875013362078       -128.60923108245561        102.37877650748324     
 C        53.886008463464023       -128.11086005510532        103.20034679802403     
 C        53.849382642916311       -126.58509830037647        103.29281631222547     
 H        53.222676801761295       -128.39578544082369        104.01699155463466     
 H        52.977785133069659       -128.28093744856190        102.62215650645929     
 H        53.690326397588549       -126.18521532879791        102.29136999745766     
 H        54.739768301838843       -126.15198740570247        103.74858853012236     
 H        53.045380978987957       -126.18303749160447        103.90928082521921     
 H        55.802473975476460       -128.59954914965581        102.71106548144435     
 O       -135.32555841918276       -58.589940704882302       -110.01318948800478     
 C       -134.23485633984791       -57.696479197591295       -110.02717190434572     
 C       -133.15607632036549       -58.521372796806979       -110.72975657507128     
 H       -133.95123235656746       -56.659654390721293       -109.84647386459538     
 H       -134.46011704047700       -57.051264445603174       -110.87632176803668     
 H       -132.33474705248557       -57.811617335761895       -110.63093643850337     
 H       -133.29908239047018       -58.590093556114610       -111.80814736821368     
 H       -132.83010178455839       -59.449379594231772       -110.26002894179082     
 H       -135.41771216182812       -59.203419433847500       -109.30032444957203     
 O        108.42466600625457        94.334507513519640       -10.691077588595743     
 C        108.64472522563896        95.601583092524578       -11.269172230687914     
 C        107.35349869113791        96.418011607536130       -11.205772573934727     
 H        109.03224036210999        95.451053472432847       -12.276779732672372     
 H        109.38461705298519        96.080829241459952       -10.628092546010208     
 H        107.10670465180249        96.229655997145684       -10.160920973785808     
 H        106.52530136966536        95.958561524818009       -11.745304593167026     
 H        107.42180548614935        97.499379898735853       -11.324418534976832     
 H        108.89496789977889        93.646489296125409       -11.136579651178920     
 O        127.45548323917322       -24.255692387970303       -107.93767743533249     
 C        128.36265644715408       -23.425178783669239       -107.24819652737700     
 C        129.08803618733927       -24.374690745082756       -106.29420896579062     
 H        129.12762422766042       -22.656404816889612       -107.13905941201220     
 H        128.97903344766428       -22.949454185537899       -108.01099758203455     
 H        128.36251281352861       -25.048987235576902       -105.83919239783678     
 H        129.73063632281543       -23.878737153295052       -105.56675100668933     
 H        129.80416098436254       -24.898585580880667       -106.92729627386210     
 H        126.78993717990687       -23.764406101898349       -108.39452670399130     
 O        114.68080802739433       -7.7947814558682920       -112.62629852490026     
 C        115.91005248194689       -7.4377123126117031       -112.03506278819478     
 C        115.78943633694729       -7.8083798684138106       -110.55658441207927     
 H        115.97685289451721       -6.3742093205431889       -112.26440776018387     
 H        116.72652116337069       -8.0478942105047828       -112.42127114322302     
 H        115.79403925819081       -8.8952922909008194       -110.47472966811011     
 H        114.91185796939683       -7.3844515456204629       -110.06848507022150     
 H        116.60684615191555       -7.4551624695051144       -109.92795198607003     
 H        114.58293956471833       -8.6474362192926879       -113.02180660919443     
 O       -68.565486314798918        101.73051687356346        145.20673081910567     
 C       -67.308373513652938        101.29473956525233        145.67349151020551     
 C       -67.658570820079063        99.961277897943816        146.33461390611367     
 H       -66.238063440493789        101.49349710317243        145.61842958363468     
 H       -66.852786995263727        100.86641772941320        144.78069742414604     
 H       -68.044062076827814        99.289705179035508        145.56748511921629     
 H       -68.362674611067575        100.05346621571552        147.16155958080392     
 H       -66.816772967701283        99.442991903914290        146.79380457398005     
 H       -68.631943445428107        102.62099953262212        145.51600272134877     
 O       -102.58026625045740        22.466509298889502       -67.296749558805260     
 C       -101.67890892019956        23.545370355836944       -67.404979783163313     
 C       -102.48678466422126        24.802808501059776       -67.082447469805501     
 H       -101.32299136874357        23.447537176573242       -68.430577848213971     
 H       -100.90572359843557        23.492968467543641       -66.638469215677162     
 H       -101.80369073909691        25.638394234353772       -66.929872334463752     
 H       -103.20617657802805        24.681007192690458       -66.272669909478083     
 H       -103.12822321013712        24.942302543865928       -67.952618756026482     
 H       -102.18912852095495        21.783886861919804       -67.820259741294052     
 O        64.686209397302591       -139.87979709606844        119.70323741355955     
 C        65.459025897519993       -138.84791414346213        119.13221006823169     
 C        66.663308836476659       -138.46641642918800        119.99360608106328     
 H        64.913361471187372       -137.97705290995313        118.76895936534181     
 H        65.694603691859967       -139.25560664761667        118.14915875941436     
 H        66.297595339604243       -137.97135749835877        120.89320059789287     
 H        67.393584555904738       -137.79933432690439        119.53556806308735     
 H        67.106460977071904       -139.39727905998308        120.34745775570703     
 H        65.109905622820975       -140.48820497541186        120.28919507981796     
 O        88.016105614254741       -80.836877011055478       -127.41623669412581     
 C        87.019260193976081       -81.352108911632286       -126.56245961742636     
 C        87.123944687180810       -82.850566212027232       -126.27696378600979     
 H        85.981814872257075       -81.054246498865865       -126.71439781159762     
 H        87.062524322530294       -80.807360596680240       -125.61933850143188     
 H        87.980024828053885       -83.015361544773526       -125.62269374068748     
 H        87.253155224850687       -83.499946853785630       -127.14282139702280     
 H        86.256098876808508       -83.118996689990922       -125.67456126883999     
 H        87.805010260953082       -81.058907362798891       -128.31019771147044     
 O       -128.67696217209721        43.546506302059598        122.72789927928847     
 C       -128.03087293927030        44.493413823679866        123.54889553236990     
 C       -126.96509192725169        43.640644826551657        124.23790705038508     
 H       -127.47732614089891        45.404148973437870        123.77747255719214     
 H       -127.59242957212237        45.161694152633977        122.80776884613107     
 H       -127.68337647401674        43.610846631650091        125.05722345911246     
 H       -126.05661212431495        43.838834642721238        124.80666466660097     
 H       -126.76209132744714        42.729825316159470        123.67461437379816     
 H       -128.00943167170493        43.275786405998744        122.11623041877252     
 O        104.21669520473898        57.513296427549172       -3.2099185644473782     
 C        103.64009580593816        58.760215854804748       -3.5274482091030723     
 C        104.33956357311308        59.343233593132545       -4.7557299982130186     
 H        103.69035137802395        59.367640102834329       -2.6237833443862231     
 H        102.58969472345994        58.564524318539682       -3.7429994546576637     
 H        105.30674357697981        59.771450035756779       -4.4924933744510822     
 H        103.62073736838481        60.084589047775957       -5.1047012860996066     
 H        104.58066991689985        58.593222596436433       -5.5090236335504459     
 H        103.60185150895131        57.006855496055159       -2.7014799364200224     
 O        65.965935094975976       -63.128639199617766        130.13028130585897     
 C        66.523431696509817       -64.391900474545750        129.84485445287882     
 C        65.503758499357843       -65.368169069273520        129.25748131597339     
 H        67.129128241661320       -64.843812496332305        130.63035254037354     
 H        67.356099669582079       -64.132195624458589        129.19115927429175     
 H        65.089994435629308       -64.739241534777889        128.46922408887622     
 H        64.765704638306616       -65.668036640517954        130.00142749647588     
 H        65.944882418172682       -66.309704506680490        128.93034102208583     
 H        66.474545026445043       -62.516732971353143        130.64009669589663     
 O       -92.039910173636713       -121.15004401549596       -103.87285494843289     
 C       -90.981723150599720       -120.68461442756009       -103.06556595250271     
 C       -90.644336744766051       -119.28473048237315       -103.57970245883848     
 H       -90.222135721825154       -121.45201312880977       -103.21465048795703     
 H       -91.303734964124885       -120.54469034376274       -102.03366014593844     
 H       -89.771223979114097       -119.10018699837940       -102.95382882804952     
 H       -91.351968424093158       -118.52270629873965       -103.25308872175628     
 H       -90.318843642052087       -119.18104647434387       -104.61478889586672     
 H       -92.243256065913002       -120.41742151128733       -104.43404987021509     
 O       -140.89394894884870        22.159278347380624       -6.3914537092736303     
 C       -141.65362652819536        23.211094296063671       -6.9434257969139050     
 C       -143.07052537891474        23.206714516601018       -6.3687785500374900     
 H       -141.50302623953195        23.203991918939927       -8.0229484398618816     
 H       -141.10307939643062        24.143929808919339       -6.8217059852221960     
 H       -143.23304228845555        22.195976401125417       -6.7430735089127545     
 H       -143.99790260900357        23.595967006405509       -6.7889617917687577     
 H       -143.26373413340252        23.063571247091556       -5.3056320655907721     
 H       -140.01016423456781        22.013417496946477       -6.6925753075138674     
 O       -95.873005906096466        92.377840331957174        119.98299623657532     
 C       -96.263321132943076        91.056162680730040        120.28119450943818     
 C       -97.579969054913121        90.744353062962674        119.56911726235020     
 H       -96.303051762235313        90.951591780469130        121.36543914569809     
 H       -95.484151991607945        90.426806861216917        119.85118677400381     
 H       -98.330523181442985        91.457688508095117        119.90958906348062     
 H       -97.990989600764252        89.747293247005942        119.72733805041936     
 H       -97.431756473688651        90.976675791442375        118.51452765242054     
 H       -95.195024347473847        92.714624174084491        120.54863099122032     
 O       -62.958315839244129       -37.749477531973710       -146.58335466512136     
 C       -63.639116888028802       -36.576025067949274       -146.96756716507488     
 C       -62.959152977931588       -35.430179518880806       -146.21754845954462     
 H       -64.666678530745017       -36.800484920915011       -146.68149921814640     
 H       -63.488528452451732       -36.359943879597317       -148.02526844278367     
 H       -61.917874774867059       -35.382730134223678       -146.53627759198966     
 H       -63.031475300626362       -35.512099036495940       -145.13303997370662     
 H       -63.379147521526754       -34.443211444580783       -146.41145221709286     
 H       -63.053471974947897       -37.786434468084174       -145.64388432456508     
 O       -68.171710386011753        99.151488679023061       -106.22527429215131     
 C       -67.719571057144464        97.837715678177261       -105.98512740374353     
 C       -66.193197060010220        97.899389379077036       -106.05008720277144     
 H       -68.216104268623624        97.274110250097237       -106.77500316408300     
 H       -67.953881854813957        97.518410943023923       -104.96962610588120     
 H       -66.074102499869014        98.273338122406656       -107.06698386578975     
 H       -65.748421456795171        96.915985970348061       -105.89779675636778     
 H       -65.751132124004727        98.512407379852334       -105.26466528646884     
 H       -67.765337875272749        99.832684297992259       -105.71160227862771     
 O       -92.939847277422558        145.25553981536169       -110.78406878897259     
 C       -91.841492324186305        145.98436904380955       -111.28459286562054     
 C       -92.245270590806939        147.42524899249432       -110.97047650997654     
 H       -90.825971314664272        145.88306925775134       -111.66741848932722     
 H       -91.104961130412036        145.89276253850915       -110.48632599343965     
 H       -91.395554675855877        148.08333253047050       -111.15216008401241     
 H       -92.694578601156550        147.56326361338185       -109.98702632931773     
 H       -93.078752945364954        147.62508163255146       -111.64388139868521     
 H       -93.815887878815417        145.58816229808482       -110.90629879713093     
 O        79.947654581332500       -134.92468581694311       -16.231693048027953     
 C        80.815315573307984       -134.04159015638402       -15.556854950921846     
 C        82.295784960308168       -134.19741538411353       -15.905810372915841     
 H        80.680577848075558       -133.87557589423312       -14.488030813139865     
 H        80.503978796379229       -133.02087124886802       -15.778896104918914     
 H        82.425401574612295       -134.52398472604091       -16.937630124574252     
 H        82.632333663880530       -134.93325743394786       -15.175487546816179     
 H        82.849847233929381       -133.26009101707405       -15.855430881821432     
 H        80.242574964565023       -135.36035255046087       -17.016703551570842     
 O       -23.719342628792035       -47.910341061169831       -37.260255765189001     
 C       -24.668551551445340       -48.932042989854814       -37.052343307465236     
 C       -25.783844301745045       -48.683532807265529       -38.068318584850964     
 H       -24.929421911934956       -48.795449981015800       -36.002872473045322     
 H       -24.258656294581684       -49.909883332934001       -37.305155674142178     
 H       -25.514814790109131       -49.148416710597942       -39.016794246032248     
 H       -26.100551508661066       -47.665954663544291       -38.297078831065548     
 H       -26.638546512334237       -49.281520077793267       -37.752098060099954     
 H       -24.077247133127770       -47.048112587136714       -37.113656139829956     
 O       -144.21155141370841       -142.47557617213533       -75.041666348348400     
 C       -143.76515568747760       -141.47615862579332       -74.152849482329415     
 C       -143.67735004896394       -140.07165414210607       -74.750761118900940     
 H       -142.91127748073086       -141.68056502028020       -73.506931484640063     
 H       -144.43868221468006       -141.45557446944878       -73.296089154604829     
 H       -143.52947314642208       -139.34904097185236       -73.948225993176649     
 H       -144.50033915504360       -139.81314874836596       -75.417067260447268     
 H       -142.82635761528365       -140.12006041447944       -75.430149648493767     
 H       -143.82759370609236       -142.33263859581484       -75.893235696301360     
 O       -133.82914922764900       -103.53106383322648       -118.89731340586034     
 C       -134.69924846377856       -103.52462523593471       -117.78781538254006     
 C       -136.09427116627262       -104.07232364751491       -118.09076604429761     
 H       -134.85638863399183       -103.04811830249302       -116.82016454849347     
 H       -134.32382165755291       -104.32374156351038       -117.14862232949073     
 H       -136.57268022624271       -104.45349292018562       -117.18858271558155     
 H       -135.88645850909217       -104.84730236065602       -118.82854777095976     
 H       -136.78523474468321       -103.31102202383074       -118.45282851999085     
 H       -134.02598598977528       -102.73229850997625       -119.36234488142011     
 O       -133.88823533241924        63.428047081383234       -49.009150957856058     
 C       -134.26856602302090        64.513831060664302       -49.824332971962768     
 C       -133.91449929271900        64.299474568228717       -51.296246365686976     
 H       -133.99328913461162        65.506992173173714       -49.469433455690258     
 H       -135.33254671869918        64.603004244151649       -49.605031413673686     
 H       -134.22137306470751        65.276559560052263       -51.669386295960649     
 H       -134.58973650415328        63.613093469748918       -51.807162874741579     
 H       -132.86423384064230        64.175875961529229       -51.560378775949793     
 H       -134.38885720695453        62.628284680639887       -49.061903843148635     
 O       -77.716463391163117       -103.08124898406277        94.629678776785568     
 C       -76.871343937652568       -103.97971192189729        93.946570104145707     
 C       -75.496848557766683       -103.31159167233649        93.899466210677787     
 H       -77.384705858379021       -104.10044630134104        92.992639930961062     
 H       -76.727945223706939       -104.89809396501559        94.515877738570126     
 H       -75.229311180180090       -103.00732886558754        94.911369317463027     
 H       -75.442879702471885       -102.46776547208111        93.211611073510340     
 H       -74.687127015254134       -103.95420278422526        93.553775528421554     
 H       -77.807325545136194       -103.36144798176875        95.527597267781630     
 O        118.21264939350350       -5.6185398175444377        145.35163844394762     
 C        117.31406146774626       -4.5320185810310152        145.34108663080923     
 C        116.15440853039175       -4.9359952827555986        146.25204705220460     
 H        117.08494945266762       -4.4315240079526150        144.28018675298696     
 H        117.75455616428144       -3.6501637119244661        145.80627085443831     
 H        115.42179890265513       -4.1293547189359261        146.27877034352701     
 H        116.34365949642151       -5.2214898539958208        147.28683055769261     
 H        115.60872142836051       -5.7267973166873869        145.73730654152507     
 H        118.83635146748806       -5.4218458740542097        144.66948579125520     
 O        4.4824460046395460       -67.263455646616436        42.011736236193165     
 C        4.1373466120036655       -67.679147526162126        43.314121229381477     
 C        3.8767906728572985       -66.344923195377305        44.013976237006645     
 H        3.5639251679282826       -68.211185947807024        44.073214762954123     
 H        3.2110098055394225       -68.223655588802444        43.131061016318547     
 H        3.2025157129976995       -65.914881921357861        43.273356373721853     
 H        4.7338361354582208       -65.671774582138823        43.992904862805908     
 H        3.3387393463190658       -66.357232035163349        44.961841906829527     
 H        3.9800909308654497       -66.496229463617240        41.783638910942265     
 O        116.86110123661733        4.8422319274361607       -143.10064762710175     
 C        117.52141478085811        4.4307865845352135       -144.27657226365230     
 C        118.98801864700836        4.8575540111830993       -144.34573629581840     
 H        117.33479881014449        4.1206914205123883       -145.30473348408694     
 H        117.64950050671824        3.3558286732864433       -144.14945229648839     
 H        119.21603567152172        4.7879237038957774       -143.28212929274352     
 H        119.11936296849608        5.9179926435932391       -144.56095376185206     
 H        119.69049160013320        4.2040630487135289       -144.86301898026394     
 H        117.11245331579288        5.7473814153523586       -142.99792682588628     
 O       -96.229053222937836        42.385869637893627        92.622613583394966     
 C       -96.731242560244880        43.647774492741910        93.001430170684174     
 C       -95.735302963607822        44.369398419108926        93.909837690867562     
 H       -97.764811104898882        43.515974902399691        93.321531652766240     
 H       -97.025223468531280        44.192896448023681        92.104481325804926     
 H       -95.579412475728660        43.566925055435313        94.630833292191923     
 H       -96.190277061282657        45.158661400308020        94.508304482121773     
 H       -94.756611926374717        44.622591077780200        93.502213603269979     
 H       -95.983859467483484        41.799592741337776        93.322030804132154     
 O       -37.707085507211914       -90.157883794955012        135.79229681342650     
 C       -38.878740136293786       -89.376243321243933        135.85835436415121     
 C       -39.255133407858452       -89.142271530399398        134.39499306215143     
 H       -39.871820166659759       -89.093410716341793        136.20749301603075     
 H       -39.592605507890667       -89.948407730988578        136.45091159375332     
 H       -38.392562146784712       -88.741328965369945        133.86271880889549     
 H       -40.102922015491025       -88.505667878108909        134.14183253916514     
 H       -39.372575583704474       -90.124760228469952        133.93780233797906     
 H       -36.923670458296783       -89.697768743924698        136.05225840051463     
 O        110.99757230727562       -75.510047643678021        74.574644907016705     
 C        109.67475876734365       -75.079544931945804        74.804713926582266     
 C        109.58612831694262       -73.988875700319028        75.872621349735155     
 H        108.92728142757107       -75.860692678598554        74.943226928750079     
 H        109.35244315969229       -74.786350960416527        73.805589362265806     
 H        110.18385937368635       -73.138688064701114        75.543989991607617     
 H        109.93448097330364       -74.258779061005583        76.869567981296228     
 H        108.55835907601586       -73.625862280130150        75.869199516794694     
 H        111.29432106261281       -76.013487036059885        75.317284779509890     
 O       -62.214566604732518        23.749462375395577        5.6427260715143204     
 C       -60.831562670385075        23.925737447435917        5.4321857747617281     
 C       -60.423662625193693        25.376595167600691        5.1743671894118748     
 H       -59.931172826139900        23.388735262653558        5.1338121679148303     
 H       -60.390457916446785        23.784274012795368        6.4188542315444908     
 H       -60.916324136890971        25.531242639208426        4.2144355276432872     
 H       -59.339954003921846        25.482352175172544        5.1244566426530032     
 H       -60.717760321171873        26.057223111062079        5.9733366588108510     
 H       -62.535500359207759        23.070804371327288        5.0687488380240264     
 O       -93.587937200398855        51.192976092392549        52.445561324561169     
 C       -94.736948521356609        51.771258378479502        53.023023515452465     
 C       -95.070818664932887        51.088112096169333        54.349553906425399     
 H       -95.497287666922134        51.855515599058450        52.246566735042435     
 H       -94.598486164003774        52.851149104828046        53.075598658248701     
 H       -95.874331914545735        50.432511583481130        54.013913583597713     
 H       -95.389860411322658        51.811167233701219        55.100222685113145     
 H       -94.215191979017206        50.592773532941301        54.808512234991262     
 H       -93.921309574507291        50.574337817880682        51.813758688207862     
 O       -71.012250202678061        34.001359038508916        143.89091827918173     
 C       -72.327782906086640        34.405532845698346        143.58413294732162     
 C       -73.051017723795681        33.100953362527214        143.24820919924335     
 H       -73.265312122211725        34.943495825551153        143.72461365262831     
 H       -72.692167976830746        34.943525208071861        144.45928304253039     
 H       -73.963148360427340        33.328568165196778        142.69656691942288     
 H       -73.329951178435536        32.408361604804576        144.04232050677976     
 H       -72.448432375332501        32.589687369652886        142.49747752472788     
 H       -70.960275640425678        33.349986608338099        144.57358776575978     
 O        54.682687927498677       -4.7625747623540988       -101.85247848781681     
 C        55.271856090788418       -5.2228195495844094       -103.04795145329663     
 C        55.815165094380745       -4.0489996673416222       -103.86330610291095     
 H        54.586981384264710       -5.9353733210905117       -103.50764024630794     
 H        55.997689761397922       -5.9991830858412500       -102.80603185285540     
 H        56.328677840122594       -4.7367007159177561       -104.53522271079414     
 H        56.696240273045213       -3.4291525424266776       -103.69718549728333     
 H        55.194549510785102       -3.4987973956106595       -104.57056406390420     
 H        54.333468165061845       -3.8847213133606466       -101.83140942455901     
 O       -19.048114256772227        140.80714045889363       -59.105442099887867     
 C       -19.666895944968793        141.91682105225294       -58.494035360618817     
 C       -18.864173400041746        142.51559745959040       -57.338637450857043     
 H       -20.637591685968172        142.39315846348552       -58.356367370340450     
 H       -19.561288273401292        142.71850863258439       -59.224955324380652     
 H       -18.683941619103720        141.73067911519152       -56.604117404897224     
 H       -19.326273542805108        143.34905724109532       -56.809573908120683     
 H       -17.878051942798692        142.76128118737364       -57.732723787839049     
 H       -19.115892559819244        139.96446726864863       -58.683147152475605     
 O       -147.68181794849758        40.896236756777235        101.97571288025507     
 C       -146.63970610953277        40.356446928015600        102.75720494905943     
 C       -147.09987695234017        39.293238708686445        103.75503864150564     
 H       -145.63215232209711        40.570169288789828        103.11393754416467     
 H       -146.08299040123572        39.727007369366554        102.06296189916971     
 H       -147.30180391158711        40.149619650710108        104.39841814492392     
 H       -146.61135877990603        38.640307812739394        104.47831674977400     
 H       -147.93549220285107        38.715353175454325        103.36020256523703     
 H       -148.03206536971248        41.659535279683752        102.40898777586993     
 O       -103.96848469556475        121.20669230121086        33.287711605515632     
 C       -103.60489109805960        120.04210994733157        32.580854026588867     
 C       -103.76429644350078        118.95872600638201        33.647957660880323     
 H       -103.39401796736723        119.65383441978125        31.584423063199417     
 H       -104.51349526146412        119.79838527620515        32.030275503737101     
 H       -102.97777420470622        118.36548659423509        33.181535354425662     
 H       -104.50148275677290        118.17361529878814        33.816057336314408     
 H       -103.51784141466557        119.14811647029724        34.692702240530942     
 H       -103.84615725471980        121.06294546687560        34.213669418079263     
 O        12.174443973501782        123.01244134984341       -95.152258956501484     
 C        12.023221411851640        121.64855390349244       -94.828155931933381     
 C        11.081637623691780        120.98997796120537       -95.836887160802547     
 H        11.690099259110694        121.58184272979301       -93.792453620455518     
 H        13.015815603386422        121.21588571364569       -94.953275711838430     
 H        11.578985824122523        120.92944341698851       -96.804916260595860     
 H        10.090502911173560        121.44055754966972       -95.889136557508493     
 H        10.875164013995708        120.00759563075547       -95.412159401042643     
 H        12.412963930490912        123.53823968235962       -94.404148423589547     
 O       -98.236639704293651        55.637763866463246       -44.352700163029660     
 C       -97.072330875346978        56.090372139442522       -45.006634947291488     
 C       -97.073984175507931        55.245956320137665       -46.281311449266383     
 H       -96.303258231127003        56.862579305772925       -44.988651968557647     
 H       -97.402893191064692        57.015466721355033       -45.478893902570036     
 H       -96.735634567170351        55.871934074527928       -47.107005941826813     
 H       -98.031815783591099        54.817362350251493       -46.576211098331399     
 H       -96.294097182103712        54.493679038483108       -46.163179176798522     
 H       -98.297655907214519        54.697173696020364       -44.284934537082201     
 O        120.89284599199297       -91.849309946641455        69.770676573187686     
 C        120.34927965189699       -91.906639931306074        71.070426127884858     
 C        118.82939772386875       -92.045260019404125        70.977774112100889     
 H        120.71075993055393       -91.025263738838362        71.600150623242030     
 H        120.78485496911833       -92.786093075836590        71.544700583233734     
 H        118.89316944848038       -91.108090756865977        70.424830226480864     
 H        117.98483158770684       -91.810844574922754        71.625738171766272     
 H        118.54660901625668       -92.956283632479710        70.450359107769088     
 H        121.82860881248874       -91.876872557691811        69.899569056973291     
 O       -84.739557213442041        74.083747658638401        56.833984407439885     
 C       -84.879399635547244        75.001506797315102        55.772729367237403     
 C       -84.047790914704535        76.186594611660851        56.264496386961383     
 H       -85.234534586573972        75.105520188952710        54.747468225740775     
 H       -84.152389897351071        74.642992794110214        55.044015087858121     
 H       -84.379544553271558        76.943093399783820        55.553335991752014     
 H       -82.980059106767314        75.976203585159283        56.202979028159277     
 H       -84.209302377070770        76.421597002782164        57.316536304893880     
 H       -83.920274153883895        74.243278471432006        57.277098629625499     
 O        111.48312260131735       -131.78958769057732        66.095509117882742     
 C        110.78655053407731       -132.25766766198637        67.228553024423533     
 C        110.18716007328335       -133.58924904773900        66.775272660160638     
 H        110.63954497549665       -132.49674464651613        68.281801137821120     
 H        111.51858129463940       -132.31153476885879        68.034362710019280     
 H        109.43640854780305       -133.06481067379590        66.184141085064425     
 H        109.54724254201848       -134.32747132506560        67.258629054573206     
 H        110.74530187725620       -134.27839558325840        66.141510210367272     
 H        111.57103897503757       -130.85009696599874        66.147015581337584     
 O       -52.544688954744920        6.9710708621144564       -46.255212453060494     
 C       -51.782934565119767        5.9976068811324579       -46.933591497266228     
 C       -51.093223291533555        6.5513075858880647       -48.180810356417211     
 H       -52.271106875005501        5.0404671164126942       -47.117088892334174     
 H       -51.117254980465212        5.6396762675770891       -46.148189487241190     
 H       -50.498492660396067        5.6718463141403141       -48.427677423132387     
 H       -50.340769215422725        7.3078184254469765       -47.958090361233808     
 H       -51.707674535765570        6.7724864793405750       -49.053524302168086     
 H       -53.370934650411442        7.0845540853327105       -46.699582382571073     
 O       -76.926968398653315        34.431524794052017        15.069395437158143     
 C       -77.440473882722401        35.485985668883963        15.852034805021331     
 C       -78.853873138678111        34.991664269966044        16.161534236096227     
 H       -77.477975532927104        36.178678745253833        16.692790391056715     
 H       -76.797522309349972        35.438484714721326        16.730930067820001     
 H       -79.077498327141740        34.924772248791022        15.096819611072911     
 H       -79.763816254760556        35.485550777703992        16.502385559328939     
 H       -79.027840945887391        34.027752848836329        16.639770618860044     
 H       -76.212065033907521        34.650991293878370        14.491664824604202     
 O        63.853419355592273       -108.54241488469656        101.61529296083165     
 C        63.413034538144473       -109.62235133973651        102.40769340608468     
 C        64.298404856226327       -109.94359727318614        103.61216899491261     
 H        63.068765993556070       -110.53470676760736        101.92067516229366     
 H        62.404882127725571       -109.40029396863304        102.75757794733008     
 H        64.049258546032561       -110.93694252831995        103.98538652100417     
 H        64.297714246058774       -109.17882988509746        104.38884804608433     
 H        65.314929077505312       -109.88744438800491        103.22277789892973     
 H        64.288368073404499       -107.83945368831449        102.07321238067243     
 O        79.645948345172030       -144.90498916431153       -15.511223786940150     
 C        80.507518887525649       -145.01678291851516       -14.400684117648877     
 C        81.406618951351533       -146.22038376208243       -14.684946458758505     
 H        79.805885842838492       -145.12044972757704       -13.572998011298377     
 H        81.180154666881194       -144.16163334546604       -14.334500532508816     
 H        81.887194452197903       -146.10719098058655       -13.713177668147905     
 H        82.347847026306695       -146.27785444602341       -15.231651878286771     
 H        81.042054395954708       -147.24512797030371       -14.613587797944053     
 H        79.132890839415637       -145.67074044340879       -15.719603248885520     
 O        111.73174647391434        117.35716598467650        98.041073430936947     
 C        110.36629369722695        117.50342628154027        97.721313145413546     
 C        109.60734990974980        118.34816956609868        98.745155957872555     
 H        109.83057042455920        116.59306058223120        97.452361670259805     
 H        110.41016552488580        117.91451873818811        96.712760615436821     
 H        109.68782085031843        117.86176570291988        99.717285430271701     
 H        108.54595423062032        118.50390473116039        98.552060763284160     
 H        110.15753566477279        119.28281329754964        98.853952993688182     
 H        112.02378796783547        117.78837890342298        98.829611451800346     
 O       -110.02912155379563       0.23950222207481547       -63.470279600804183     
 C       -111.04389571733918       0.91985671743370145       -64.174162515534647     
 C       -112.13268273889371        2.3861104011795697E-002  -64.765411766192770     
 H       -110.76972525723504        1.7132680565853313       -64.869453126039048     
 H       -111.50512370242916        1.6393946123659200       -63.497676067463665     
 H       -112.83385366554961       0.80743879897898418       -65.052579536508873     
 H       -112.68292903674995      -0.54083493881971834       -64.012784784091849     
 H       -111.90104935656223      -0.53974064835632130       -65.669181154074693     
 H       -109.85130407120575      -0.64962861961126384       -63.736460582582929     
 O        90.627526178871122        8.1906787931914646       -50.029645774677647     
 C        90.306539389074302        7.9077397180383180       -51.373153482332285     
 C        90.580521616366838        6.4308558028968505       -51.658790724835590     
 H        90.862750918133131        8.5987107325673762       -52.006626306821559     
 H        89.232603124136034        8.0777449716250480       -51.449698002062306     
 H        89.930909558178200        6.5955064398835228       -52.518438525562424     
 H        90.174312159347309        5.4814951562458543       -51.309780375037761     
 H        91.643001340107091        6.2498006640706363       -51.821443540463207     
 H        91.443576530901922        7.8793751629967810       -49.668845416320394     
 O       -72.105834492983163       -12.052451137930321        120.90552283582903     
 C       -71.286376587598212       -10.982248188383677        120.49169390005513     
 C       -71.204430666717158       -10.968495021089359        118.96495334893945     
 H       -70.336216723232624       -11.095407126246137        121.01370090601799     
 H       -71.764352213033149       -10.073208925202147        120.85677864416505     
 H       -70.518564178268420       -10.131850267151979        118.83186421872824     
 H       -72.182910107879962       -10.799184689479947        118.51549592272504     
 H       -70.880974718327607       -11.918901485616468        118.54044908880968     
 H       -72.909719229502812       -11.941420367188607        120.42130540104179     
 O       -41.839683214046737        11.761632570306897       -50.881871770431566     
 C       -42.907009435345344        12.681138150732780       -50.823354893429354     
 C       -42.353940804605308        14.104361687342664       -50.903297676165828     
 H       -43.483785985462909        12.473083783219892       -49.922165557752884     
 H       -43.494254712009898        12.491085656719228       -51.721755130212351     
 H       -41.341564556519131        14.056140919250639       -51.304382569092340     
 H       -42.300391917280379        14.655801672517718       -49.964603666969509     
 H       -42.932153534060234        14.625838192222332       -51.666077040810571     
 H       -41.507520499038641        11.484406387946134       -51.722013782465737     
 O       -45.830852317801273        92.613142248760099       -130.59567807645016     
 C       -45.040522088612839        91.450058014021735       -130.69918262578994     
 C       -45.046455435337855        91.125702598579096       -132.19337115266677     
 H       -44.177504081608326        90.809899777368130       -130.51615973384961     
 H       -44.071767517627180        91.701665062587850       -130.26754802893333     
 H       -46.080766599812449        90.993121453258141       -132.51073948197342     
 H       -44.501594297339693        90.231572764409094       -132.49628725232327     
 H       -44.707500332664722        92.022037009384903       -132.71278825591841     
 H       -46.197025713376370        92.726576735120418       -129.73192192597139     
 O        48.685489322439146        23.191728193904947       -71.932858573048208     
 C        47.613639252567147        24.000805429298456       -71.503170948274843     
 C        46.294378175762041        23.378896079003795       -71.962104456774455     
 H        47.785207501721558        25.012676170098715       -71.870297584652718     
 H        47.649258049863683        23.963478792331220       -70.414392745724300     
 H        45.464804999130116        23.939283648812850       -71.530973249624907     
 H        46.220820500887342        22.304143756284454       -71.795981921783493     
 H        46.325661474482523        23.450805263306190       -73.049279920545544     
 H        48.414658239235798        22.860827557570278       -72.775580543247699     
 O       -1.9379151902784213        51.156279385372017        58.973797560622145     
 C       -1.5171571568592923        49.857338192181530        59.325670338922194     
 C      -0.84749469911725672        49.897026138809906        60.699649254183747     
 H      -0.87999397496773080        49.479832395754102        58.525912576296541     
 H       -2.4348458816381680        49.275067323340167        59.408784653345343     
 H       -1.5466624200071160        50.340638875278394        61.408502016229171     
 H        8.1113808386549913E-002   50.463594647619324        60.768832678484102     
 H      -0.73592505734463154        48.863324177512673        61.026929766548172     
 H       -2.5133917850609628        51.618542064626865        59.563852584009965     
 O       -105.92673354690896        148.79380618999429        96.208160305707224     
 C       -105.78357439956986        147.56965383890449        95.523283324159095     
 C       -104.91445249869189        147.75129228929478        94.278503990809313     
 H       -106.77050161335043        147.11497349390933        95.437606688381848     
 H       -105.43946553883609        146.81140323592928        96.226664491059083     
 H       -104.60468264973213        146.76585949439053        93.930560246935499     
 H       -104.00940520279858        148.34580624516144        94.403173682236854     
 H       -105.56488327953500        148.13366661440082        93.491846670494681     
 H       -105.03915349102229        149.06757213529656        96.382168573894873     
 O       -117.55258209989026       -54.178891737276729       -84.119026532282575     
 C       -117.79223014795906       -55.037178546113729       -83.026317712424486     
 C       -119.13437329007530       -55.743023370156905       -83.221959912478113     
 H       -117.70635658472135       -54.429070103002367       -82.125801261690967     
 H       -116.97708773134100       -55.760799181441257       -83.022321945691047     
 H       -118.98544841377138       -56.308880134568987       -82.302325472313015     
 H       -119.38310707041040       -56.622571358369029       -83.815783812749160     
 H       -120.08353574899893       -55.251972650361679       -83.007344254411976     
 H       -116.68700849585002       -53.800194095558645       -84.099140395636553     
 O        73.563809042955086       -142.77752715362990        119.22994796106235     
 C        72.723265611554751       -142.02830965052593        118.38126670583610     
 C        73.627762366038823       -141.78655709634967        117.17243159811557     
 H        71.835866814642003       -141.82335298059988        117.78242101115815     
 H        71.939035346070241       -142.75140305352915        118.15717125267240     
 H        74.039088601266087       -142.74495512365345        116.85559733391385     
 H        74.422114344364672       -141.06331374468201        117.35688747930465     
 H        73.124024849562019       -141.37123516466798        116.29958781318692     
 H        73.671134790888715       -143.69038946608885        119.01042892285551     
 O        146.64341527997973        30.312193315718890       -40.587522225647170     
 C        145.94133385000552        30.138602400149015       -39.377130611925942     
 C        146.34547968252252        28.719263084939104       -38.977151794538578     
 H        145.64782768446932        30.364491309041512       -38.351982642655102     
 H        146.41607303051217        30.885243062496308       -38.740537821250562     
 H        145.51562888442248        28.425549758343355       -39.619942689638698     
 H        146.15143818015389        28.064140402010942       -38.127880255363721     
 H        147.36558659250460        28.495542801743522       -39.289291491825281     
 H        146.36113489507369        31.154021574742178       -40.911046556442059     
 O        88.519822273716457       -99.760549593845028       -144.16766384801838     
 C        89.712244821099588       -100.18914850367572       -144.78615511148479     
 C        89.718448735758869       -99.937799784938960       -146.29434154790866     
 H        90.060237387907094       -101.18946553073246       -144.52853708771548     
 H        90.471088851183637       -99.652139749945860       -144.21705293496404     
 H        89.345525767681991       -98.929612523316933       -146.47485998708351     
 H        89.148311042131468       -100.67201375119409       -146.86352767332639     
 H        90.701940907869883       -99.983779603598450       -146.76202634454310     
 H        88.483586061319912       -99.825550816806057       -143.22559866782254     
 O        56.968717406656744        18.596302129321103        30.486188976968123     
 C        58.063131635449231        18.502818594009575        31.370280784668097     
 C        58.697960469908722        19.839059724112101        31.756665291528531     
 H        58.825323633146112        17.743374282101847        31.195902680820350     
 H        57.729081641630032        17.994062022970351        32.274535894662584     
 H        59.565771318993455        19.653878297276233        32.389683593734539     
 H        58.001970345894172        20.562891139378085        32.180653278273056     
 H        58.966642695974862        20.295870199838845        30.804176910888525     
 H        57.124124834593957        18.698007278075778        29.559620242404179     
 C       -43.309702824336433        122.92373357255562        2.5627951506146243     
 C       -43.887458001770440        123.96485967694771        1.6035786234374227     
 C       -44.326289751503772        122.44286448139081        3.5987279955726215     
 C       -42.981826023538773        124.41380182044550       0.45635473405843857     
 C       -43.676274059977153        121.21456219257053        4.2363754136333434     
 C       -41.578856969274760        124.06495368745439       0.95417379042947736     
 H       -43.539292100944756        122.15837976954462        1.8214299695120157     
 H       -42.443946233950925        122.32501333158544        2.2797763481924749     
 H       -43.340705920476992        124.90680981790919        1.6470772441653438     
 H       -44.951692723852773        124.17770745050630        1.5025824268888286     
 H       -45.300308172010126        122.05908558117871        3.2952450696724211     
 H       -44.501483240349764        123.25705361153297        4.3019373132775627     
 H       -43.640964821314476        123.75473052117771      -0.10867708395147391     
 H       -43.146423008834084        125.47531772495333       0.27144442158017734     
 H       -43.520771156424487        120.32534434911003        3.6254659795685553     
 H       -44.362698936823598        120.85942830697775        5.0050111159270489     
 H       -42.754187118579303        121.46237012778673        4.7621576030424171     
 H       -41.532807230207005        123.35374391581001       0.12945563989430720     
 H       -40.664169657684845        124.37562245278230       0.44926586116696937     
 H       -41.379513473190492        125.08508345440242        1.2823466342346455     
 C       -17.167256022868035        15.026319179445181        18.000295951390751     
 C       -18.344993986114449        14.150219980058042        18.428343241723720     
 C       -17.178698228049537        16.313100614575809        18.826070448321396     
 C       -19.020766821681686        13.908273020649100        17.078293751399034     
 C       -16.422491163584599        17.627665579793184        18.631362945961321     
 C       -19.142363330930596        15.212479838716767        16.289560702365399     
 H       -16.493502057909318        14.543377153232779        18.708054813126775     
 H       -16.262822308023487        14.596157226283832        17.570109507103389     
 H       -19.209887748713189        14.629673642309305        18.886800399288585     
 H       -18.130305843572458        13.148597026587945        18.800848868680696     
 H       -17.623153030353752        16.423818329136036        19.815161718565509     
 H       -17.478964093771150        16.857573207773623        17.930810693085697     
 H       -18.067120092655006        13.388747660715040        17.171841636573291     
 H       -19.863630418800131        13.218261901991349        17.038725026881902     
 H       -15.547317953674154        17.499183997372199        19.268280694304760     
 H       -16.879513624753145        18.492436568362660        19.112405161085292     
 H       -15.998533025673641        17.732616911271400        17.632691471855630     
 H       -18.431195506386029        14.650412653761439        15.684233729271405     
 H       -19.948780428481442        14.932576961986170        15.611736369702076     
 H       -20.107522931241192        15.280641613236257        16.791477927882962     
 C       -34.470066923572276        97.798062584344606        109.33475822545650     
 C       -34.856686403432242        97.518499796978091        107.88210171007069     
 C       -33.285747467672849        97.103103043480516        110.00726079650997     
 C       -35.764428591321966        96.301331133913166        108.06195015286396     
 C       -32.211526296045633        98.103946437756136        110.43411249741170     
 C       -36.130110007979575        95.685698789892555        106.71098202890151     
 H       -34.115853194406412        98.742127791528731        108.92078539993287     
 H       -34.913268720682979        98.764672422122388        109.57421083892912     
 H       -34.136386972384201        97.010218645290522        107.24107204945675     
 H       -35.486586126858292        98.245863291680024        107.36997995559200     
 H       -32.843953370458941        96.311182380736710        109.40246359475398     
 H       -33.646234239895833        96.385528231979166        110.74430607592089     
 H       -35.025754355771291        95.618063344682170        108.48100317453722     
 H       -36.608476931048720        96.565215347797206        108.69916877958282     
 H       -31.864244877377374        98.553392436754990        109.50379329320054     
 H       -31.285873933541833        97.733941249923276        110.87497973929172     
 H       -32.669945850815083        98.899705106256903        111.02124085004579     
 H       -36.717280643069174        94.892911394453080        107.17446745264125     
 H       -37.198047280570741        95.871730724924447        106.59695533778604     
 H       -36.323056947813875        96.580277735464392        106.11886719107872     
 C        38.232914205586432       -59.554730881519760       -88.753890602367889     
 C        38.476128814717505       -58.174548461793442       -88.142511813346829     
 C        38.469775652578747       -60.495786764380952       -89.935479163163976     
 C        38.790197765995217       -58.268761913565960       -86.649084397735209     
 C        37.351951982504268       -60.421194088635694       -90.976030543609170     
 C        40.305063114580371       -58.473702679334302       -86.617097031647717     
 H        38.628564222033546       -60.354548028407997       -88.127908482162596     
 H        37.999125434740350       -60.608172747282531       -88.907848846385207     
 H        37.505566652389206       -57.688697111056513       -88.242799265772121     
 H        39.374223572475913       -57.707883906431086       -88.547172179110248     
 H        38.981832959934650       -61.456628670088826       -89.883708821775571     
 H        38.806793199646009       -59.599723699427642       -90.456622300967538     
 H        38.275733099079197       -57.307824477198167       -86.644057993810549     
 H        38.212801353929009       -59.086566929005450       -86.217913447152497     
 H        36.469250152678285       -61.060314086419176       -90.954512654597536     
 H        37.609061162725126       -60.439583812577546       -92.035113518495677     
 H        36.874403966023351       -59.442765847787015       -90.923818297719464     
 H        40.328366891182334       -57.703642531817280       -85.846017109727995     
 H        40.828094200302893       -58.988200953829555       -85.810976685804377     
 H        40.222921376267443       -59.539498000477401       -86.830247347141864     
 C        122.38960401981764       -36.638356879363073        88.845080342201939     
 C        122.74859473712563       -36.798465365665187        87.367470130576180     
 C        123.60667699560560       -36.737173719625716        89.765302874703977     
 C        121.87840910829139       -36.037561502086838        86.366648885525052     
 C        122.94367506472000       -37.152386535492553        91.079025789638905     
 C        120.50225983295688       -36.326201527506385        86.967266103825082     
 H        122.44313006276688       -35.558176291484912        88.709268440503294     
 H        121.47795713772463       -36.121123958720240        89.144195864228294     
 H        122.08770745576982       -37.383474803210973        86.727867160386623     
 H        123.74705748334839       -37.092495155320343        87.043867583025076     
 H        124.44983543511118       -36.046397854522823        89.761756866551934     
 H        123.64505821297425       -37.777533469199170        89.442381067931478     
 H        122.65977234991004       -35.456937448913536        86.857002920420740     
 H        122.09030648679381       -36.394173016244530        85.358666847859737     
 H        123.48535090322147       -37.615534336985611        91.903756810359567     
 H        122.03510525202550       -37.753823384516529        91.049451754150070     
 H        122.55711710287729       -36.267262522857543        91.584227175676631     
 H        121.23264059286119       -35.529272355224826        87.107079384994748     
 H        120.55616977720564       -35.465260115485954        86.300952694304172     
 H        120.70226857580545       -36.245972581606424        85.898781298495948     
 C       -79.369497932678755       -84.209095913174664       -8.8580099454226744     
 C       -80.792044021152108       -84.102652880318828       -9.4083493765043151     
 C       -78.387125911538661       -83.068274553671600       -8.5909654658212879     
 C       -80.819301224611777       -85.396202799896585       -10.223104953606999     
 C       -77.211327118306329       -83.482303030792593       -9.4763573316669127     
 C       -82.149524371593557       -85.638073776074222       -10.937139775182592     
 H       -79.890934850566339       -84.274367530960021       -7.9030527907017438     
 H       -78.947819513210831       -84.606298918506909       -7.9346914093392744     
 H       -80.930343830921032       -83.828539779637552       -10.454215140328182     
 H       -81.571870874980874       -83.649763285233050       -8.7960904272247173     
 H       -78.376553476811523       -82.550828404376674       -7.6316752477748970     
 H       -78.889335402989744       -82.570990591202218       -9.4207812934054722     
 H       -79.956181426959731       -85.289394054976327       -10.880155963399867     
 H       -80.639734456842064       -86.185664022406797       -9.4933058129956454     
 H       -76.742234314267790       -84.374202782169419       -9.0609459048765082     
 H       -76.474755946865614       -82.678884365683032       -9.4853787594933365     
 H       -77.623304959101233       -83.749072660642128       -10.449603571638786     
 H       -82.706852520950804       -85.654690818004624       -10.000545329241543     
 H       -82.713711178012176       -84.715454682306913       -10.800878087827895     
 H       -82.050020860159762       -84.973573010592219       -11.795415827271331     
 C        1.5895528270148829       -145.41216158983900        140.19794920112579     
 C        1.3490572549947155       -144.03239377741147        139.58456215885343     
 C       0.19353970173288060       -146.01081554565860        140.37288261948612     
 C        2.0775474841568213       -143.83284977698568        138.25515437314840     
 C      -0.24248781170452860       -147.43149641784342        140.73258673474297     
 C        1.0014036816755749       -143.97061406280346        137.17776100702420     
 H        1.7119646457971567       -145.90480834939893        139.23336922555967     
 H        2.5687816148699163       -145.88590757105095        140.12884237320569     
 H        2.4035383007151090       -143.75851727248448        139.55048306825211     
 H       0.77569965282340558       -143.18628633801825        139.96332757783557     
 H      -0.74058178902348915       -145.52645411181234        140.08843391340483     
 H       0.47254065868605477       -146.30709847923245        141.38405763574090     
 H        2.5743430921381476       -142.86324215871622        138.28914170351715     
 H        2.9374657850682171       -144.46471412680063        138.03292019336854     
 H      -0.84721367369198775       -147.72298916536889        139.87384434467199     
 H      -0.99329424060230687       -147.49257805463964        141.52040571483130     
 H       0.58001291267539523       -148.14665074756959        140.72046894035535     
 H       0.67609489443591331       -142.97092724168434        137.46568529568023     
 H        1.0330326890647505       -143.44741465428780        136.22206127261367     
 H        1.6471935808097000       -144.56040916353126        136.52722497147380     
 C        92.402399797092500        34.224435317720371       -98.539861232531237     
 C        93.567794960475837        33.321157010666319       -98.944562845631495     
 C        91.932990112473377        35.638095934382577       -98.194811773411487     
 C        94.268832691849269        33.231259428182135       -97.588721585065088     
 C        90.727414537635454        36.054580360203580       -99.038001792321595     
 C        93.361320142760803        32.541072064753813       -96.569946196219959     
 H        91.601680789742048        34.214553350336267       -99.279355272411223     
 H        91.412185733375338        34.641824508990773       -98.357207433227259     
 H        94.558137807636882        33.762220293597061       -99.057630306969500     
 H        93.412446142502461        32.550573979651787       -99.699657849805888     
 H        92.737418846329845        36.229036205409777       -98.632743279735109     
 H        91.825820468620137        35.690997940040880       -97.111383839555771     
 H        95.172332392670995        32.636612200731427       -97.723565524715468     
 H        94.583541070530060        34.190411398463596       -97.177520702448163     
 H        90.738473272059395        37.143641662588152       -98.994148977296589     
 H        89.786753188632460        35.842527130346944       -98.529779720413032     
 H        90.781413054310448        35.786334167225981       -100.09309806427301     
 H        93.834290518328359        32.061996880811421       -97.427201060740501     
 H        94.383120992154772        32.165409693734205       -96.623804882283494     
 H        94.269194717953354        32.829163597046048       -96.039977335143078     
 C       -65.577923617472436       -64.463106626440009        9.9926766203947341     
 C       -66.916215926020953       -63.771952396360504        10.255584380862306     
 C       -65.415027226061468       -65.761076404614116        10.784244823780851     
 C       -66.532356243098420       -62.312660247156728        10.008685501529893     
 C       -64.043419889393789       -65.871612471037594        11.450815310811540     
 C       -67.784301153925412       -61.477574433786863        10.279067772756267     
 H       -66.025280135986705       -64.927017454570333        9.1136095612300458     
 H       -65.022377972141854       -64.271038537343912        9.0747556669835010     
 H       -67.227800504778500       -63.618303370587142        11.288738309256514     
 H       -67.733013742743140       -63.953268933126239        9.5569674372137019     
 H       -65.878984865882842       -66.715050150465245        10.533690665489900     
 H       -65.619698819854847       -65.140831918388884        11.656888130996943     
 H       -65.908903671558804       -62.683822771317502        10.822101244235515     
 H       -66.019613452607899       -62.242642286193359        9.0493667990968394     
 H       -63.559663303934911       -64.894849927184580        11.447023009998157     
 H       -63.425967402480765       -66.563352785518276        10.877798909971792     
 H       -64.215496874223035       -66.150529762459072        12.490379969458228     
 H       -67.199765828838011       -60.966005742794238        11.043734936637849     
 H       -67.892807485132934       -60.436189150007095        9.9760115665650080     
 H       -68.090500324710476       -61.493567240819850        9.2330819764247405     
 C       -76.558906406758680       -105.86663069382358       -17.060399857253326     
 C       -75.789532139005743       -105.86526919657221       -15.739073877428346     
 C       -75.484990321057126       -106.02071618116818       -18.137805453433270     
 C       -76.627832653582843       -105.86946942989735       -14.460373141535092     
 C       -74.841029736084806       -104.66032532232684       -18.407050000902295     
 C       -77.693752836862288       -104.77375977315798       -14.427578157076763     
 H       -76.738171488628339       -106.94166098222379       -17.043849217559703     
 H       -77.627806932322940       -106.07927861389420       -17.078636344270521     
 H       -75.789183147665554       -104.95888469794851       -15.133626070723203     
 H       -74.762369842822750       -106.22302405991059       -15.668017357286807     
 H       -75.781908670308468       -106.23766034740942       -19.163902299696208     
 H       -74.710719902774855       -106.77057901770148       -17.975598488744172     
 H       -77.012995864759930       -106.88850213590376       -14.424020120026302     
 H       -75.907373112119402       -105.71193506738358       -13.657739361444479     
 H       -75.682579520879727       -104.00068692506457       -18.618641658517280     
 H       -74.222771710756149       -104.55549722170313       -19.298603753337677     
 H       -74.426632998008472       -104.32181487586887       -17.457425843685051     
 H       -77.756691013212148       -105.70517364600346       -14.990256510136089     
 H       -78.003257462871318       -105.74606788370845       -14.044271750395504     
 H       -77.653956502663362       -105.20562683289026       -13.427574616703900     
 C       -56.647519877364672        5.4231442231785936       -121.39093820749214     
 C       -56.185649452139785        3.9697093437905839       -121.28119467911826     
 C       -56.710200092863680        6.9158205509604453       -121.71625282738520     
 C       -56.985253500362482        3.5687951501082424       -120.04113739171518     
 C       -55.415495100401202        7.4910558695789771       -121.14120125517051     
 C       -57.059836936826279        2.0504440567595035       -119.87716110783835     
 H       -57.133285345790327        5.4666059698797804       -122.36574230098718     
 H       -57.327303978386084        6.2220506528649633       -121.68715129170978     
 H       -55.471139638969547        3.7041449713010346       -120.50205968945177     
 H       -55.978524061566681        3.4024233886972666       -122.18860073007694     
 H       -57.468724239702588        7.5579155127464315       -121.26853061123651     
 H       -56.790794877812452        7.0217152824086870       -122.79809886398000     
 H       -56.606068911662049        3.9272419938379501       -119.08414477841795     
 H       -57.937649004499036        4.0750645853025853       -120.19840820816279     
 H       -55.515858572253698        8.5695904428132508       -121.01958604498489     
 H       -54.610048606232375        7.2798630392687391       -121.84458848397956     
 H       -55.235048164119455        7.0632141166520297       -120.15505198310524     
 H       -57.720061737666789        2.6591200815521399       -119.25932889814817     
 H       -57.851916409493484        2.2597954233827715       -120.59610622641181     
 H       -56.754183883816289        2.2668005202455030       -120.90081440255686     
 C       -90.558212414521094        110.77252656532727        114.33723451655877     
 C       -89.642871117266253        111.36934309876831        115.40672095875540     
 C       -92.038715746582255        110.41545428428670        114.47306645316340     
 C       -88.856113617884333        110.10792765655980        115.76405079910008     
 C       -92.303734497214791        109.56916173044191        115.71861652245811     
 C       -87.709690658844266        110.40579999972161        116.73091553702585     
 H       -90.614689803269727        111.80851779264678        114.00312005408959     
 H       -90.868383572986218        111.09941533340893        113.34474389922586     
 H       -89.843567329441598        111.14341136342213        116.45399165472783     
 H       -89.298317750917676        112.39842206579701        115.30484128099067     
 H       -92.143475567235271        109.68558350382965        113.67031242614733     
 H       -92.608128624939511        111.33886277050641        114.36730347760336     
 H       -89.417614824602154        109.30786897677778        116.24646396164549     
 H       -88.563173932616436        109.72545870010156        114.78629628698246     
 H       -93.304846366908819        109.16693210008080        115.56341903436723     
 H       -92.396446892617448        110.08344459268315        116.67518205055256     
 H       -91.626565456693541        108.71688718255088        115.66231168489864     
 H       -87.793359646786527        109.52318871721951        116.09680454403056     
 H       -87.433827658132429        110.33160876304729        115.67901476785755     
 H       -87.658032438265806        111.15386963930041        115.93982564352018     
 C        31.142390415946732        84.724557059547919       -95.175585702775777     
 C        30.227459236983240        85.593881402327114       -96.038729447937612     
 C        30.378663608026727        83.659870002622455       -94.387547798029416     
 C        31.065337348692584        86.650629259505749       -96.759205067962696     
 C        31.453159742535465        83.206134805230818       -93.398900455668311     
 C        30.154528503988946        87.217532192613845       -97.848649541204509     
 H        31.325317352211261        84.101701598045921       -96.051193390277206     
 H        32.200396331713996        84.619467065239945       -95.415751484354914     
 H        29.849553724878991        86.553976591363991       -95.687297161344176     
 H        29.509239938663427        85.094390830412706       -96.688937252928071     
 H        30.116904510165941        82.842433464527957       -95.059395763168652     
 H        29.645031368023233        84.183801366962385       -93.774865411222109     
 H        31.400699843869010        87.374148532762817       -96.016135888009771     
 H        32.031615470675327        86.357631918120944       -97.169764710878042     
 H        31.839744195878190        84.120050001528767       -92.947888971157568     
 H        32.325358554237177        82.905095451345218       -93.979197423203971     
 H        31.121905861481910        82.394204012686544       -92.751490798272414     
 H        30.445079745267279        88.204340437849680       -97.488247811604239     
 H        30.523472548528311        87.683380000187739       -98.762414341199275     
 H        30.377501944128376        86.403666547528246       -98.538581092126478     
 C       -19.899406762279199       -134.03066510581624        109.32321375225220     
 C       -18.817234711176173       -133.85849389511046        108.25686405513328     
 C       -21.117123414202535       -133.13110703568739        109.10919865122776     
 C       -18.323457682601294       -132.44851258774864        108.58240644995169     
 C       -22.086115425615919       -133.55528437603422        110.21326797230924     
 C       -17.007980847344587       -132.14856928193959        107.86310424345014     
 H       -20.101886393568929       -134.80943246736430        108.58794278713360     
 H       -20.031948909989914       -134.86830139362581        110.00797503669662     
 H       -19.124301169022594       -133.62243696308167        107.23799834647672     
 H       -17.922318499986925       -134.47646137177961        108.32994736994064     
 H       -21.493089497796170       -132.71976361051995        108.17242433462705     
 H       -20.597976833963660       -132.44087318434879        109.77415285081076     
 H       -19.073008688822426       -131.88906101128617        108.02268584450306     
 H       -18.308253959749681       -132.30645226224317        109.66300247445837     
 H       -21.682618738065781       -133.85223126451257        111.18131388033814     
 H       -22.575465341512121       -134.46626955453698        109.86867730999278     
 H       -22.888151488138028       -132.83153381418143        110.35826220594534     
 H       -17.515820057415954       -131.48445053978497        108.56249366282161     
 H       -16.954227904446054       -132.18509544816732        108.95116509799141     
 H       -16.810799096893255       -132.96934972082707        108.55269746079358     
 C        68.457875535411773        55.055131001238742        125.82426528363712     
 C        68.613244097773247        55.826161168002976        124.51307725961755     
 C        69.569173117582949        54.565587788072932        126.75335415253170     
 C        67.234650869947970        55.602993664051056        123.89056792577466     
 C        69.365105780226955        53.116595259235957        127.19677076854916     
 C        67.122777867457614        54.080105318587670        123.81223236784419     
 H        68.261486287626695        56.049205392886584        126.22594596052093     
 H        67.950753073242083        55.266413161998202        126.76569329078045     
 H        69.166068928615474        55.359315256295488        123.69788426357044     
 H        68.708843340300902        56.910758255570485        124.56416486392389     
 H        70.118851839079994        55.186357214355318        127.46088408694096     
 H        69.965325564802086        54.077000986447295        125.86315967857261     
 H        66.930836807730756        56.222888135741535        124.73408898121311     
 H        67.196250930832932        56.110634665284969        122.92675979407430     
 H        70.348707567101798        52.786484189723616        127.53091758640939     
 H        69.106607980637321        52.364385313037545        126.45147948173530     
 H        68.708082328784371        53.092423789582199        128.06615902731795     
 H        66.287131169179759        54.775773352082354        123.88865555741853     
 H        66.657683798528936        54.631005782824481        122.99473854884893     
 H        67.511222285069650        54.418034802035528        122.85149589371198     
 C       -54.469367909753089       -144.05434059470886       -100.32221484944192     
 C       -52.943597484459040       -144.12766173093186       -100.25521022063919     
 C       -55.924765918604976       -143.65112871711904       -100.08330540375641     
 C       -52.475042748222457       -145.17208697748549       -99.241566670718683     
 C       -56.888516030122112       -144.83025264073544       -100.22003014026701     
 C       -52.847266134831884       -146.49987553816217       -99.902072713174533     
 H       -54.658055938918508       -143.27503416325965       -101.06057677011306     
 H       -55.429148235375052       -143.92077999180935       -100.82129732684001     
 H       -52.578308862951161       -143.15559685059787       -99.923918669933570     
 H       -52.395023606204880       -144.50323475095513       -101.11898773152303     
 H       -56.356758706529376       -142.67871943507794       -100.31974238027125     
 H       -55.779899779684641       -144.08152007697041       -99.092408285571054     
 H       -51.533265357217360       -144.63806883312012       -99.367978211237173     
 H       -52.969623688302093       -144.98549416576890       -98.288323325631225     
 H       -57.402556289539959       -144.66147685050404       -101.16627388634816     
 H       -57.716570604685884       -144.92375563480419       -99.517404481147523     
 H       -56.319162257522379       -145.75361643990419       -100.32649885689970     
 H       -51.878939467516588       -146.94388512188834       -99.671207162800840     
 H       -52.928462761826843       -147.21025418798746       -99.079352062654607     
 H       -53.878843946588901       -146.61671341995702       -99.569964113995766     
 C        8.9794711848245718        96.043726585883775        87.706464198041232     
 C        7.6967837682183564        95.402857342374091        87.175577613440538     
 C        9.1913127084400230        97.386334094264228        87.006200558112951     
 C        7.6480889652581858        93.890385743369094        87.394437063622561     
 C        10.718100189635948        97.467523752629788        86.993186555297697     
 C        9.0664902194930370        93.552387935141212        87.854585261074376     
 H        8.4513004133300100        96.523527303188345        88.530434416716190     
 H        9.3594590406457066        95.818994518141452        88.703060790846735     
 H        8.2065003487456387        94.714860470570713        86.501078281798428     
 H        6.8527642841180887        95.851701731243267        86.651869894238729     
 H        8.7781205130704070        98.179385190886720        87.629451849597260     
 H        8.9145716408131168        97.246431875704104        85.961240370660477     
 H        6.8172966631391585        94.172449355322414        88.041216900326617     
 H        7.3462591341889603        93.408734856768348        86.464377289594239     
 H        11.026583330536338        98.403285652529064        86.527045270479334     
 H        11.111556243123509        96.641899396806096        86.400196854403717     
 H        11.045055489002568        97.493243081885964        88.032676222759648     
 H        8.6008073615526577        92.968652451633659        88.648620717894460     
 H        9.5321421622798770        92.577494290170080        87.710187802856254     
 H        9.4569170467439054        93.547452968923992        86.836920028826071     
 C        78.917413495403792       -143.65899429201082        125.81913374591228     
 C        79.117966018794263       -145.14305330444824        126.12765998918378     
 C        78.684380477386568       -142.15485285280084        125.96437541818688     
 C        78.061960598553341       -145.66184196746224        127.10415975440833     
 C        77.565526949416792       -141.85803386251311        124.96542277060269     
 C        78.234412321370044       -147.18050654093869        127.14610324169844     
 H        79.918805501449341       -143.23858873572118        125.91172557849951     
 H        79.201418859379260       -142.69012094625629        125.40837168071393     
 H        80.077241542060264       -145.15732708516933        126.64504451175164     
 H        78.954174755080160       -145.76292369748660        125.24616516612862     
 H        79.409194050624066       -141.38423851578023        126.22686125244799     
 H        77.972438292652868       -142.44197694293641        126.73819588062516     
 H        78.358552754639149       -145.32704467484561        128.09816368083941     
 H        77.031327110975681       -145.41195612014172        126.85226347656081     
 H        77.086027320760948       -142.79171237287744        124.67144245153816     
 H        77.997335139415227       -141.39844407970728        124.07636768204236     
 H        76.822474195305730       -141.25590300244116        125.48831000091722     
 H        79.087526527347521       -146.56625851371530        127.43419253026029     
 H        77.954076066061802       -146.93600743379503        128.17066741128158     
 H        77.184578287783410       -146.95277058289076        127.33072395605478     
 C       -59.333882245044471        59.104130288624241        72.141093534154621     
 C       -59.518820597347855        60.451397584981933        72.840028179176841     
 C       -60.556106105895488        58.281073556941472        72.549244677771085     
 C       -58.255587282503839        61.282395481827173        73.067019303432261     
 C       -60.254932871105581        56.951872196530068        71.856164908790703     
 C       -57.712015633327248        61.614040972145730        71.676917839619662     
 H       -59.821846490648504        59.427012263025119        71.221453312130436     
 H       -58.657080509746280        59.009027803266335        71.291979315854277     
 H       -59.023687188167422        60.478268480769380        73.810708797209230     
 H       -60.472061972057013        60.974758674010204        72.914352022017766     
 H       -61.575962737416731        58.662064188238269        72.602523323570011     
 H       -59.950094383598426        57.985192271073942        73.405576434031701     
 H       -58.576910540210754        62.243037822063805        73.469533408795300     
 H       -57.481090589783761        60.799890955266875        73.663210818066574     
 H       -61.165255143269242        56.359970839060260        71.951380603757713     
 H       -59.596768347014269        56.382553637517532        72.512515324218072     
 H       -59.803858566401260        57.076467031704794        70.871732021920891     
 H       -58.776398106076954        61.845258958584537        71.635347053192959     
 H       -57.678818572781786        62.689715973638698        71.849895370086017     
 H       -57.003013052600103        61.973440082580851        72.422737921493123     
 C       -12.628039218292175        41.666145211864546        139.74344958956743     
 C       -13.276845991207358        42.082612065640653        138.42305339736183     
 C       -13.031639530297022        40.266516277225556        140.20819312077228     
 C       -14.363072634508283        43.064760557424982        138.86275445429592     
 C       -12.542460441350070        39.430851709158553        141.39149769916884     
 C       -15.232461924124637        42.456846583148142        139.96386470276565     
 H       -11.954648178194050        41.373439472420998        138.93786417275282     
 H       -11.744922651896355        42.096146199725645        140.21600045410892     
 H       -13.963848036639297        41.382266182817979        137.94803358030987     
 H       -12.663570452063480        42.658240715682197        137.72976793553408     
 H       -13.635890106868350        39.562002166488817        139.63666785574978     
 H       -13.296734597977009        40.689828250639948        141.17702313817605     
 H       -13.356620570429790        43.428152858794952        139.07036033228923     
 H       -14.865017737279107        43.656606389691198        138.09733322634028     
 H       -11.833871148158874        38.716844332126485        140.97174234557895     
 H       -13.425556161154816        38.863977187421511        141.68627771367966     
 H       -12.030776416678716        39.926913092776076        142.21624162937204     
 H       -15.303619585423482        43.403312991944254        140.49981047667862     
 H       -16.214565746047665        42.910109175880287        139.82923522176125     
 H       -15.894821426348729        41.818675136254413        139.37895693919444     
 C       -38.829328376962053        1.4013038907392812        144.38795681301366     
 C       -38.179744490391585       0.59823941888605936        143.26058415448927     
 C       -38.755715899401714        1.8618164054439170        145.84409913850294     
 C       -38.717646919058666       0.96515751424769247        141.87715615954340     
 C       -38.626051059344363        3.3816187877667963        145.95006492514469     
 C       -38.031946070178101        2.2313427160661501        141.36292827088599     
 H       -38.930212852620294        2.4561914523081572        144.13274205299240     
 H       -39.432566338731704        2.1027322119022807        144.96432680338197     
 H       -39.116280075827021       0.18390967521269497        142.88731217838054     
 H       -37.433955708308950      -0.19549797735088537        143.30394397103962     
 H       -37.754081370471852        1.5245665700444373        146.11072776235494     
 H       -39.583621619071423        1.3937420883566027        146.37662014135864     
 H       -38.490847965472177       0.13748521690610593        141.20512882319187     
 H       -39.796486881220190        1.1152731392538922        141.83629434539793     
 H       -39.528037555304003        3.8499242743494375        145.55609761198855     
 H       -37.778170026605920        3.7075235934227564        145.34758349624605     
 H       -38.565299454931129        3.6233821709113201        147.01117743486628     
 H       -38.670792284438278        2.7808264220232997        142.05433489112735     
 H       -37.297103459577002        2.7958758227072318        141.93686965225820     
 H       -37.077314871517956        1.7250860130551964        141.21980799398784     
 C        48.506388600178070       -136.86654822348132       -134.71667000806406     
 C        49.450926579623115       -136.38720794074709       -133.61398153560768     
 C        49.051947054084856       -138.04930317200510       -135.51748061196676     
 C        50.435213601477734       -135.37240159645009       -134.19638012760203     
 C        47.937073498283922       -138.80092515403402       -136.24546584745309     
 C        49.570259944905381       -134.24090245209658       -134.75262275299977     
 H        48.171383592609452       -137.38035231877487       -133.81562783196253     
 H        47.437692750303796       -136.67277298279419       -134.80854153571406     
 H        50.438606100614514       -136.82642317521743       -133.47369910675530     
 H        49.014576852931704       -136.07161580193144       -132.66629990517941     
 H        49.306911849892479       -138.73695491939972       -134.71111343537052     
 H        49.880939319705455       -137.67999289327699       -136.12120388023624     
 H        51.121948416883569       -135.07986827438685       -133.40207574884033     
 H        51.157366062892038       -135.71418195786092       -134.93785299774481     
 H        47.547525110205562       -138.07167081814958       -136.95577567573008     
 H        47.065012397819217       -138.94610283273732       -135.60786652293245     
 H        48.260269093388175       -139.66170596855872       -136.83087254313190     
 H        49.289394163435659       -134.95882357389291       -135.52320929664748     
 H        48.549927248248984       -134.43783439268140       -134.42362582949212     
 H        49.430134760188857       -133.91884410432039       -133.72075874088793     
 C       -136.86450580747851       -84.505209370199324        115.32829813720096     
 C       -136.77951706470787       -83.763460263565591        113.99397204361100     
 C       -136.72283139834960       -84.878291150676390        116.80429925595521     
 C       -135.61566546168066       -84.139251900035930        113.07632772684664     
 C       -136.38636737803091       -86.366041860292228        116.69832322239660     
 C       -134.85920310337241       -85.349338502275813        113.62523211911180     
 H       -137.75565884269656       -84.089322820349707        115.79838819948658     
 H       -137.38296630590600       -84.983592942222728        116.15923010235105     
 H       -135.88518690747435       -83.143799208272327        113.92844502556949     
 H       -137.61363731595242       -83.230418625772032        113.53767174479508     
 H       -137.29361438495670       -84.355506464702984        117.57176453602399     
 H       -135.67898377271015       -84.591661910306129        116.67652666170633     
 H       -136.58642766194927       -84.248676333964724        112.59285387403847     
 H       -135.02452066574293       -83.336102386005720        112.63632918148495     
 H       -135.71868477819328       -86.552168078499065        117.53954665598616     
 H       -135.79534666344142       -86.696340880683636        115.84410013173157     
 H       -137.30618034366978       -86.906948461005243        116.92072866376398     
 H       -134.98045296395065       -84.926141664741465        112.62808478176790     
 H       -134.23965063438357       -84.528435395926934        113.26416041010735     
 H       -134.72678772154973       -84.327872040015038        113.98184449373132     
 C       -110.62354895829598       -106.35291636762136       -141.80440952538785     
 C       -111.69827758298251       -107.39200962094311       -141.48334162886036     
 C       -109.51925335510884       -105.90072761272219       -142.76038936636863     
 C       -112.14167164177744       -107.48753880375305       -140.02316466470813     
 C       -108.22762831707554       -106.21295725747264       -142.00404384022741     
 C       -113.09365037893365       -106.31349239748461       -139.79252973963881     
 H       -111.04418778895882       -105.35522904378035       -141.93003989723798     
 H       -110.01792112585997       -105.44760519371101       -141.84596231489297     
 H       -111.32315001572246       -108.17659294326657       -140.82622039288921     
 H       -112.35708074768066       -107.83890333818800       -142.22789812587831     
 H       -109.55053368552829       -105.09067351734502       -143.48904149911581     
 H       -109.58251104861232       -106.91564243214293       -143.15287680943101     
 H       -112.77494921781125       -108.37097865188667       -139.94196433689305     
 H       -111.33647839047576       -107.46250723846239       -139.28890495853818     
 H       -107.39398493230799       -106.76168700083953       -142.44226094449928     
 H       -108.28710566112362       -106.66153457768239       -141.01240840159826     
 H       -107.72341324278261       -105.28063839376195       -141.74978273397886     
 H       -112.89473468015218       -107.11892429400228       -139.08555595716260     
 H       -112.25161306805521       -106.38175540202489       -139.10375307756837     
 H       -112.08620359576685       -105.89953627018096       -139.83485324873243     
 C       -128.32502556302947       -61.478673878592204       -73.588135538038699     
 C       -129.48578471510129       -60.976810329774658       -74.447561025937290     
 C       -128.02409589800050       -60.892038894407392       -72.208591541758267     
 C       -128.81337384106374       -59.984298390249606       -75.396573433211316     
 C       -127.16047331408583       -59.634047274386049       -72.305824630431786     
 C       -127.89354901855390       -60.800169198614554       -76.305483808285118     
 H       -128.97297543057238       -62.344526435161313       -73.451899229444052     
 H       -128.08920788544185       -62.472958368577395       -73.967461787138035     
 H       -130.16777163479878       -60.247843127436497       -74.009838900122730     
 H       -129.95904765277331       -61.699972247735602       -75.111759048983131     
 H       -127.31770779608418       -61.629216115993437       -71.826903722483337     
 H       -128.97162377602825       -60.806404955347283       -71.676653768510903     
 H       -129.88773701061618       -59.932033971555775       -75.572959679219437     
 H       -128.41603562953242       -59.154583479008792       -74.811940582474790     
 H       -126.33313470231192       -59.809691006948654       -72.993400062316553     
 H       -126.76588792633292       -59.417355716278593       -71.313127715005365     
 H       -127.75638599543463       -58.815247178622812       -72.709005100309838     
 H       -128.57324277766608       -60.344797120605996       -77.025728629610057     
 H       -127.14389432678756       -60.039648765034293       -76.523947754312061     
 H       -127.19293861536690       -60.701605557620859       -75.476309367158549     
 C       -62.447591277723568       -147.73603805132697      -0.78736893838504629     
 C       -61.396321479121404       -146.72473435056736       -1.2455584574455361     
 C       -63.609749395287999       -148.16142146901120       -1.6852989820831668     
 C       -61.117633018636816       -145.73603796808001      -0.11301570415411732     
 C       -64.931096660258547       -147.80010816149979       -1.0060823358701441     
 C       -62.471220782662755       -145.60630899401107       0.58613485322952918     
 H       -61.634240911211663       -148.44764332414621      -0.92942220070724435     
 H       -61.983461836473715       -148.29078834115910        2.8067144358386642E-002
 H       -61.674130460876256       -145.74665762373894       -1.6383536792134696     
 H       -60.491663981776469       -147.10480668210357       -1.7201528283341092     
 H       -63.815259088661314       -149.22202365187346       -1.8301740810388392     
 H       -63.611889941826590       -147.80022292821045       -2.7137109078130401     
 H       -60.345817568806126       -146.46922789011512       0.12114953648777993     
 H       -60.737151843018843       -144.80819999020935      -0.54015832723114687     
 H       -65.140946949859909       -146.75297021533325      -0.78798869444174524     
 H       -64.907721494990739       -148.25085569950809       -1.3922929658698457E-002
 H       -65.788684453843175       -148.24758236783089       -1.5084865742928515     
 H       -61.852235009629496       -146.19936557081658        1.2593661985593956     
 H       -62.140592729571331       -144.82806844235859        1.2739769239723877     
 H       -62.209658619961310       -144.64119301188262       0.15227272134568465     
 C        83.552672148930725        112.81124537591474        69.033648831927934     
 C        82.365996106924399        113.33386507417168        69.843901632390313     
 C        83.603412474795704        112.53333042838351        67.530974675600561     
 C        81.495843884963989        112.09040682474122        70.029610195236899     
 C        84.284327022386464        111.40974449870524        66.748829412544239     
 C        80.417768898821137        112.49572831146016        71.035249204353519     
 H        83.862255548641215        113.85566490155630        69.071674921506670     
 H        84.565498812897729        113.17579366669823        68.862223249100694     
 H        81.603558456873429        113.91014086862424        69.319788064020074     
 H        82.569898936087327        113.66926613387412        70.860774156608016     
 H        83.284998445502694        113.22456012390060        66.750645236820290     
 H        83.173623290039146        111.54998065687931        67.721774329566330     
 H        81.123480040752568        111.79420678188148        69.048941750010997     
 H        81.976781003777774        111.15804644671779        70.325420308941162     
 H        85.255684394454292        111.80646386122963        66.453569389535232     
 H        83.685695498268629        111.33110364889839        65.841329580019291     
 H        84.475934182573681        110.45821174722468        67.244785164015113     
 H        79.929907126579820        111.80247752744330        70.350052745505110     
 H        80.488191986225672        111.57551971361623        71.615211877273637     
 H        81.348752758148706        112.32096809967824        71.574533830784873     
 C        19.420828735204978       0.59012891115125221        65.908491994669788     
 C        18.408708732976972       -1.2498679693138115E-003   66.890187043661498     
 C        19.636091073536480        2.0654911986213200        65.569656829021113     
 C        17.317399310403410      -0.55589580898260649        65.974079777340322     
 C        18.199737430428080        2.5108895890643952        65.293342722034254     
 C        16.309119064269634       -1.4114827827638927        66.741662235116166     
 H        20.104550662813523       0.45813817269412893        66.747063855843692     
 H        20.507934960456492       0.55583677564029466        65.836908880479200     
 H        17.750845186361452       0.68620393499531973        67.421903929666371     
 H        18.730095867318845      -0.86458564182682585        67.472820424263318     
 H        20.232946112255441        2.1361126572079074        64.660329226929491     
 H        19.905969391729801        2.5683233110873753        66.498325557702842     
 H        16.706677410575974       0.17873309619022335        65.449256866969193     
 H        17.892021701738400       -1.0754380101439474        65.207277941236015     
 H        17.860471440582060        1.9003595825694299        64.456532342799221     
 H        18.315425544705249        3.5272498058924722        64.916874622377520     
 H        17.450757771429252        2.4047629486255704        66.078114444098134     
 H        15.960083094036186      -0.48208421758799469        67.191653504116871     
 H        15.244429071128275       -1.4437169102645657        66.510369834693023     
 H        16.195876228433512       -2.1177736330750569        65.919209024974705     
 C        69.395964008449823        92.515677287050252        70.697847560518994     
 C        67.926006898132925        92.100167319645436        70.764319346793002     
 C        70.271475666283251        92.209422168426528        69.482311397899608     
 C        67.766261822232309        90.686689977718160        71.325036940883663     
 C        71.570633978418812        92.914553288661310        69.873231828787468     
 C        68.158968211117653        90.635069228812341        72.801843610870236     
 H        68.972194342487512        93.511165246768570        70.565473172179850     
 H        69.505815948435782        93.318750847886662        71.426617333752745     
 H        67.534126463758071        92.100566821037646        69.747201074771525     
 H        67.264112399498046        92.612135845038580        71.462806214823487     
 H        69.831560931501670        92.077223912358619        68.493828374423572     
 H        70.548148123579054        91.308555451083890        70.030026230461885     
 H        66.677074506779405        90.645153970187266        71.331795937138267     
 H        68.282146323613958        89.976250741812777        70.679096287685212     
 H        71.297340332345286        93.955428340248943        70.046406946777026     
 H        72.165661081159499        93.029689623173340        68.967259184788688     
 H        72.133056345283620        92.379513619264003        70.638420486947894     
 H        68.306200718395033        89.555348278421064        72.776839505303627     
 H        69.219775375389077        90.384493849731470        72.802197973672989     
 H        68.783801458037615        91.524478524118493        72.883296124928322     
 C        74.378210825529678       -146.77075884929917        146.02061641702534     
 C        75.084026593568097       -148.01961688160628        146.54978436459047     
 C        74.154551190386883       -146.53705242471943        144.52622738455912     
 C        76.213453449937276       -147.69933712923284        147.52940507645573     
 C        73.259848435181738       -145.31197264650228        144.33510525042871     
 C        77.329454758122267       -148.74449449497288        147.53470827815673     
 H        73.491733891968479       -147.26266577669193        146.42097404889037     
 H        73.801835833492120       -146.38291273317938        146.86053741694627     
 H        76.073271862657165       -147.72531993255998        146.19923750107895     
 H        74.922476404601284       -149.07096541204015        146.31173440012867     
 H        73.546469977665765       -147.24121049391621        143.95833772011659     
 H        75.036058665216885       -146.45378347245892        143.89053020019554     
 H        76.521204145947934       -146.69788653670241        147.22859589920253     
 H        75.730337947828289       -147.66581185537794        148.50591699156496     
 H        73.925270270954925       -144.48579655185526        144.58559822120571     
 H        72.498067842667353       -145.17909583329998        145.10330710920695     
 H        73.005328055806302       -145.12764418513618        143.29138957978739     
 H        77.298824452419993       -147.83073834348815        148.12818229608399     
 H        76.904652462316747       -148.88480117842036        148.52866854684095     
 H        76.490250750298443       -149.38147845562088        147.81415066778391     
 C        95.190971603651818       -44.035565571999427        118.86480458550291     
 C        94.564711677593721       -45.258877341175136        119.53498947163963     
 C        96.458415065367689       -43.373657891792611        119.40638211500762     
 C        94.287726112619353       -44.944176935777406        121.00539201912053     
 C        97.552233229356418       -42.581763422622465        118.68923070559735     
 C        93.665678187161646       -46.112209392612002        121.77128853596889     
 H        95.487587654417624       -44.764482602118356        118.11061701556520     
 H        94.809760235070740       -44.034675886303056        117.84363998776054     
 H        95.163313603229724       -45.971268932050130        120.10268127035177     
 H        93.729911790570043       -45.747670772348165        119.03270461351755     
 H        96.869866866243711       -43.521585857796062        120.40484330524922     
 H        96.109915644978841       -42.425173259434025        118.99769509455761     
 H        95.260628098251672       -44.617876930657303        121.37293787418015     
 H        93.594468381763321       -44.103385684985938        120.98164706655196     
 H        97.278051921816441       -42.452911502740434        117.64217690345980     
 H        98.484286139533367       -43.145139084565628        118.73378692785195     
 H        97.582035297013348       -41.592807089853039        119.14658966996410     
 H        94.628918802850208       -46.428138859520899        122.17185817603500     
 H        93.760271381039516       -45.841253809813331        122.82282797506940     
 H        92.754828292978374       -45.650752907963650        122.15274676532717     
 C       -41.313559274666915       -17.099808205086905        125.93175709027031     
 C       -42.169572595712026       -15.871586623033147        126.24248838829270     
 C       -40.695419298457182       -17.076246021108112        124.53347646788620     
 C       -43.569182900038079       -16.485482140285644        126.19705522083345     
 C       -41.688906432995452       -17.841984435027268        123.65913720824619     
 C       -43.631976697854455       -17.759139993115660        127.04067454901046     
 H       -40.667449531308712       -16.356645075561794        126.39903727901968     
 H       -40.878766382491499       -17.804760271403644        126.64034565386218     
 H       -42.352516623904307       -15.150433222702677        125.44588983450829     
 H       -42.102059071944943       -15.438605099154191        127.24052090563315     
 H       -39.757373123664877       -17.590424343721434        124.32421575299533     
 H       -40.568903154443390       -16.034542525675100        124.23860778639612     
 H       -43.556165473115342       -15.498665286728905        126.65978941489216     
 H       -44.101819344778235       -16.487534465632148        125.24605875560663     
 H       -42.617854242971191       -17.277383113064595        123.57925485677980     
 H       -41.888865487078945       -18.801672380100360        124.13570352334899     
 H       -41.280364829673623       -17.948925359690968        122.65427034566703     
 H       -44.365743863921004       -16.979658499432226        127.24584345181951     
 H       -44.346728026835038       -17.957210863177867        126.24192650478679     
 H       -43.223098943093049       -18.018513061018137        126.06412727916857     
 C       -70.280517168657482        142.57441935336257        120.59179190564079     
 C       -71.724648476783031        142.10322356661084        120.76586170612039     
 C       -68.957146059766117        143.03354409502273        119.97882022164190     
 C       -71.594154525902596        141.25932565778618        122.03418679498709     
 C       -68.935453516233167        144.54496231698872        119.74863432092549     
 C       -72.863266210036130        140.45472371672392        122.31669734283706     
 H       -70.367179238519952        143.65995750583116        120.54492381918679     
 H       -69.438851449352384        143.25031809814092        120.74298625440218     
 H       -72.083751819650402        141.28595396369028        120.14038973597755     
 H       -72.479914559936120        142.84731791041068        121.01883746137094     
 H       -69.060494900024267        142.64616362158739        118.96523481135058     
 H       -68.153908781502622        142.60941574996781        120.58133583761789     
 H       -70.794999577155551        140.51811802870222        122.04209742926761     
 H       -71.326812155106907        142.00105020205834        122.78683067292728     
 H       -69.843492775803412        145.03663117573720        119.39959808509511     
 H       -68.235787375790323        144.72841058800708        118.93321169938272     
 H       -68.532721182989562        145.08653142609634        120.60456047115385     
 H       -72.386395063666512        139.95784527499049        121.47182713867707     
 H       -72.343526974805911        139.65121219342674        122.83855971775480     
 H       -72.391651021927927        140.70584070762288        123.26676015569760     
 C        31.548828950145769        145.11460570161867        136.29074856701567     
 C        30.294258492352867        145.98264062362409        136.18872254350723     
 C        32.742590881849416        145.67196035751044        135.51477875055500     
 C        29.480867648268660        145.55500191177583        134.96669085662816     
 C        33.720196288657959        144.49804266553556        135.45117008052392     
 C        28.194858223381772        146.38120032289291        135.00433318080894     
 H        31.575742565850089        145.75360559960438        137.17338937406612     
 H        31.771073775878246        144.35082013576059        137.03595920014104     
 H        30.254981906244467        146.86045712786085        135.54374537126128     
 H        29.689282418688773        146.11699619009153        137.08541228195202     
 H        33.109449618337443        146.69809297912752        135.49097681985680     
 H        32.203822321627463        145.32357275221324        134.63361217422656     
 H        30.013200554958068        145.92057309150167        134.08857964687675     
 H        29.238879551906692        144.49341190026857        134.91601127561307     
 H        34.322024457814280        144.56970366089698        136.35713224361206     
 H        34.478417528250873        144.74378200645509        134.70765628912056     
 H        33.235835833198117        143.55191034342621        135.20965695912417     
 H        28.318373541149541        146.20811561118140        133.93527490624143     
 H        27.467713499331257        145.57090001737760        135.05700140589221     
 H        28.123447024838278        145.99422293608302        136.02082170955686     
 C       -133.85949220903603       -20.923060306012456        118.86185985520908     
 C       -133.82002707654527       -21.328132561134982        120.33569837127773     
 C       -132.45771026049167       -21.067725719144146        118.26863123771334     
 C       -135.27853006921887       -21.759098822346608        120.49342593653883     
 C       -132.34079020390962       -20.433447292764747        116.88231895815066     
 C       -135.60835869935187       -22.292538985301622        121.88787766760400     
 H       -134.12894633967508       -21.930984946049289        118.54629305747240     
 H       -134.77286682349006       -21.002940767471863        118.27239742816927     
 H       -134.27873280163593       -20.669181304574295        121.07290410877368     
 H       -132.91440265542329       -21.775588749505573        120.74524366662025     
 H       -131.78047787566871       -21.902964826875149        118.44704635575425     
 H       -132.32220059591688       -20.033655004838845        118.58554590807654     
 H       -135.83033748606579       -20.866408372457542        120.19895645308770     
 H       -135.41527212432499       -22.546221427955988        119.75191419231665     
 H       -132.87322088648020       -19.503422334782904        116.68314314920946     
 H       -132.80131385303881       -21.127732354877420        116.17947740501791     
 H       -131.30426909604634       -20.337411756797803        116.55905254282976     
 H       -136.32353637869889       -22.142560216135411        121.07909637087091     
 H       -135.80854083336001       -22.974316132669969        121.06131430048134     
 H       -134.98744581164820       -23.044452932407591        121.40085345810201     
 C        83.538828127395732        83.369486718545105       -54.707103874879074     
 C        83.693100718454772        83.337717149974424       -56.227969288301850     
 C        84.275711797207862        84.532491734015025       -54.042075425939373     
 C        83.109988249622589        82.121758160699571       -56.948569380645452     
 C        83.581753090703558        85.012151743757215       -52.766854429907312     
 C        83.508410396054146        82.038550982989022       -58.422400209388194     
 H        82.711111146049376        83.935182618851556       -55.134857010740099     
 H        82.779909512977184        82.870584172620440       -54.104410943844123     
 H        84.394465378593878        82.629442248761620       -56.669029711953648     
 H        83.841418979413362        84.245425986539814       -56.812919170251092     
 H        84.848689569364538        85.297902357966848       -54.565471137981852     
 H        84.662574444541463        83.772341975156579       -53.363393136727417     
 H        83.446373946974219        81.287968779488892       -56.332339011657439     
 H        82.030064718169356        82.241024921009426       -56.861158544548879     
 H        84.384539160344175        85.299957852794051       -52.088030386811852     
 H        83.208761082052135        84.130288642082434       -52.245995051973409     
 H        82.772729311731027        85.716522240080408       -52.960355794559803     
 H        82.852735388190709        81.445239989920509       -57.785083747990363     
 H        82.474790002316581        82.324442049029159       -58.227476782824091     
 H        83.075251562740263        82.920962547193938       -57.951419080454890     
 C       -48.920390640648989        83.092665888905458       -32.050133842237045     
 C       -49.070013801331129        82.463021976191982       -33.435414482746530     
 C       -48.115673383425516        82.421663309813582       -30.936569034775854     
 C       -50.422029642127036        81.823315147032559       -33.752698616840078     
 C       -47.920209371876105        83.593393482535959       -29.973925090960563     
 C       -51.469794861053160        82.912973056161249       -33.523189061890626     
 H       -48.257839016389987        83.778475042845315       -32.578140624304908     
 H       -49.135209523640810        84.152587872392743       -32.186215669731418     
 H       -49.106604566242950        81.376639995918765       -33.516255740849147     
 H       -48.445937951098045        82.763188978653602       -34.277156180282034     
 H       -47.321305798220486        81.691876228396282       -31.093064975502461     
 H       -49.088936444033592        82.206517683413779       -30.495466559193023     
 H       -50.444114782349693        81.647187288016951       -34.828147904661137     
 H       -50.669558125035437        80.940175346573952       -33.163721698529628     
 H       -47.254387058247630        84.406313305867315       -30.263652326225223     
 H       -47.434126272187946        83.191662199003034       -29.084860848365253     
 H       -48.868260204942352        84.003937195062207       -29.626429063026940     
 H       -50.962638224745703        83.611202267697138       -34.189047952092267     
 H       -51.996841982642863        83.000951311233521       -34.473231768538824     
 H       -52.387835785878046        82.325407869017397       -33.531435544244218     
 C       -20.540848882344719        96.126644913548262       -40.094845866429978     
 C       -21.192839564638025        94.763931065952136       -40.330981674329742     
 C       -19.015485678601440        96.067606265083299       -40.007539278529705     
 C       -22.718448346939478        94.744610148397740       -40.430908789235005     
 C       -18.021222525225600        96.999589279494387       -39.314221439232831     
 C       -23.403890447842112        95.716271224032653       -39.469719503305477     
 H       -20.676007386052195        96.062224483473827       -41.174513500199829     
 H       -20.977435242189458        97.111360906032175       -40.261659510619054     
 H       -21.813169311948609        94.457545159724958       -39.488711716882761     
 H       -20.663408868646940        93.892440777353968       -40.716089187373022     
 H       -18.374926103083084        95.411807249434560       -40.597209615046410     
 H       -19.100998921499588        96.061856384592659       -38.920914021889139     
 H       -22.896569421979095        94.939690600439206       -41.488413607735801     
 H       -22.997912234923437        93.719842926929800       -40.186261839870944     
 H       -18.269902492857661        97.594802807771330       -38.435598101869203     
 H       -17.458943545040931        97.716997103036391       -39.911940737474360     
 H       -17.194871727608930        96.412599817003525       -38.913362691078795     
 H       -23.325361106268755        96.545744041048891       -40.172505342042612     
 H       -24.368362033515350        95.932864568174267       -39.929047128512693     
 H       -24.194985091163716        95.085774615556502       -39.063833702461103     
 C       -41.114299555835004       -80.600405870540996       -80.845617671775415     
 C       -41.577260917452804       -81.688871379547933       -79.876726263468328     
 C       -42.043153404384817       -80.444179430610092       -82.050053169360169     
 C       -40.280624575012958       -82.490039268107921       -79.755461671400226     
 C       -41.241801307638333       -80.650446267074273       -83.335794126635420     
 C       -39.513028312806057       -81.877561464150844       -78.583494152980862     
 H       -41.624423085727656       -79.868799896491936       -80.219018369403102     
 H       -40.463172993636498       -79.794064034931253       -80.508057276478667     
 H       -41.746401942297332       -82.659054577324071       -80.343883508790199     
 H       -42.239191331499022       -81.433805951012744       -79.049145600163499     
 H       -42.443905750416512       -79.460384174047874       -82.294275295407516     
 H       -42.945363032503266       -81.055332587965580       -82.074744470367492     
 H       -40.555539255169833       -83.486388435125662       -79.409325569510031     
 H       -39.652934590242701       -82.498665755444947       -80.646545804010657     
 H       -41.121345080863975       -81.731356292490602       -83.408069474287259     
 H       -40.212919488238775       -80.291357490360554       -83.359405825902343     
 H       -41.899039594998840       -80.366782585134970       -84.157787312940513     
 H       -39.288479441648470       -82.667874677336158       -79.299792099836154     
 H       -39.111243409026692       -81.665485337897763       -79.574298153748600     
 H       -39.912016084703396       -81.307318976737065       -79.422381647281995     
 C        66.115862384353846        70.973449908103476       -122.86292005445898     
 C        65.565406701619850        72.261111427399086       -123.47673373620971     
 C        67.292023169213252        70.278740500455768       -122.17599524618798     
 C        64.802916928356609        71.671619986780598       -124.66372577047034     
 C        67.564407088807712        68.900329449240360       -122.77901346667025     
 C        65.706544927322241        70.476329345704599       -124.96799153406189     
 H        65.513245425204403        70.631631316091713       -122.02142562820600     
 H        66.220169804319951        69.986438133926455       -122.41233397630894     
 H        66.078312084798753        72.576683817014754       -124.38527221593078     
 H        65.202586239250863        73.059609400160653       -122.82953799858990     
 H        67.181775335353748        70.201741981655431       -121.09432216299817     
 H        68.126036489904237        70.973311687274872       -122.07553274422058     
 H        64.230447148387015        71.798341187699791       -123.74485691129837     
 H        64.678517124576885        72.436932400379519       -125.42983389149364     
 H        68.482035038971887        68.550698032916998       -122.30592073866691     
 H        67.808279943461073        69.119916092873908       -123.81844013406720     
 H        66.826977834928215        68.108418371962813       -122.64796007921390     
 H        64.857883587300975        69.810251046081092       -125.12359865640506     
 H        65.557252433073913        70.273646595000429       -126.02852509929834     
 H        66.475648852985287        70.946284682240574       -125.58095248611363     
 C       -102.92816352815674       -113.68203920084589       -109.70866217170671     
 C       -103.17922616979301       -113.39673858153155       -108.22764491772435     
 C       -103.91159553413335       -112.95653437250174       -110.62754472095196     
 C       -102.18242956547373       -114.37615288355146       -107.60717329274851     
 C       -103.51903474020290       -113.09703489927240       -112.09859767107653     
 C       -102.14938258154606       -114.03275050047344       -106.11760166050530     
 H       -102.17973464593339       -112.88962571484925       -109.70273867525754     
 H       -101.94862274988743       -114.01240285195840       -110.05429166853081     
 H       -103.75359490942999       -114.16899427377632       -107.71595976367530     
 H       -103.34764659980473       -112.37331370799610       -107.89247918474356     
 H       -104.05178486927149       -111.90582981854322       -110.37364138682786     
 H       -104.93500115813544       -113.19754319852665       -110.34004563735412     
 H       -102.51850325946322       -115.38658474216246       -107.83994330682567     
 H       -101.17494937643964       -114.42505151146479       -108.02032298034840     
 H       -104.22094907167840       -112.76584353898194       -112.86392662756832     
 H       -103.43224780529174       -114.16477295591874       -112.29985248036893     
 H       -102.53237818946882       -112.68151678759213       -112.30342334471976     
 H       -101.89182206101590       -114.99814107291697       -106.55324319275476     
 H       -101.19322234751195       -114.31310528657141       -106.55948259613825     
 H       -101.36939552403673       -113.44014641428006       -106.59566082268542     
 C       -119.34198725050874       -143.85466866652467       -1.0868029696331984     
 C       -119.76239176471641       -143.80524175233256       -2.5560401820304488     
 C       -117.92599243865385       -143.99915625506532      -0.52830233534154170     
 C       -121.27928112106325       -143.83295933559472       -2.7460912192436653     
 C       -117.98876758756401       -145.40659679948749        6.5845399082768763E-002
 C       -121.81308038975408       -143.97846153755771       -1.3207040963998202     
 H       -119.43432238698462       -142.77150566640140       -1.1663777561780790     
 H       -119.45601598916305       -143.16780726036080      -0.24816186542414043     
 H       -120.32132796849287       -144.74055529923416       -2.5263935034369078     
 H       -119.15350741398082       -143.78530211693587       -3.4598997997152594     
 H       -117.37016520350116       -143.12931802797397      -0.17824868951763628     
 H       -117.67925887585663       -144.38404922820152       -1.5177870342430828     
 H       -121.07119225730156       -142.89287370476782       -3.2570099203170022     
 H       -121.53645568938163       -144.65603635810331       -3.4128036483919879     
 H       -116.98371458582209       -145.54535342477911       0.46423585165747538     
 H       -118.01227291667283       -146.21134460648614      -0.66895286325423164     
 H       -118.62460755665236       -145.46941210119843       0.94894323218238896     
 H       -122.23425954291584       -142.98515546867100       -1.4757883316643352     
 H       -122.86212249978637       -144.26128896031847       -1.4079925668849977     
 H       -121.90793188517353       -145.04454299763941       -1.5270375656735087     
 C        128.23047692932130        104.36908960076775        40.910028318957764     
 C        127.03716968167048        105.32151224710164        40.827870646862827     
 C        129.21953688487611        103.23807531115501        40.626465243819702     
 C        127.00064674840395        106.19646184523278        42.081254170227410     
 C        129.58571369026819        102.71316228840779        42.015069580250639     
 C        127.42809627977985        105.23971112183939        43.194697456350582     
 H        128.96220336862393        104.81346762878968        40.235339795233742     
 H        129.29044940418564        104.11537035733096        40.923627813752837     
 H        126.08788516544129        105.09487411235955        41.313250994508550     
 H        126.89120729758201        105.88229029725750        39.904657283212785     
 H        129.92530865950832        103.15322217387615        39.800156487551902     
 H        128.33085904024711        102.60874935119985        40.578501235927547     
 H        127.66760882319750        106.81096584206651        41.476567212969563     
 H        125.99733228380138        106.60663436790148        42.196226312588195     
 H        129.05858382482455        103.00341090593939        42.923909336529633     
 H        130.62454844730746        102.75467148892956        42.342482692745158     
 H        129.43022500725803        101.63476104648825        42.046279315360088     
 H        127.63238278757653        106.30945820431062        43.149885093666157     
 H        126.68546251691447        105.84695527990624        43.712239342106912     
 H        126.35017577850113        105.08204485710804        43.231149179827511     
 C        132.75598565202520       -49.510960396076200       -125.68102695611148     
 C        131.47207274370996       -48.680693166645675       -125.67296646014292     
 C        132.94986793603539       -50.919594834816870       -126.24316535862287     
 C        131.76120766014256       -47.200953477170991       -125.41877689647706     
 C        133.90967879780993       -51.759186500661500       -125.39954808608066     
 C        130.49981868639850       -46.358245599371877       -125.22751202099876     
 H        132.98487214429798       -48.896509355103738       -126.55175131217862     
 H        133.75036099517516       -49.354640754434115       -126.09921575786974     
 H        130.93892212827475       -49.064107556970036       -124.80299874424533     
 H        130.99585444938086       -48.666733072200834       -126.65333436735442     
 H        132.91682430849295       -51.187265441712988       -127.29927169293043     
 H        132.24619026691491       -51.221250780204798       -125.46731650203949     
 H        132.43265771995715       -47.227071229234582       -124.56053880509651     
 H        132.29968966874895       -46.868720031579045       -126.30633428434146     
 H        133.60591309128816       -51.714267851947810       -124.35369504449574     
 H        134.91314844113217       -51.342108627528944       -125.48436993595767     
 H        133.80405738009654       -52.792601449321339       -125.72969604706576     
 H        131.00603063191249       -45.661163122881383       -124.55973553595675     
 H        130.71178453261226       -45.415977783241821       -125.73278603210596     
 H        130.10102663869949       -46.345511673843014       -126.24186045282670     
 C        83.379778059522678       -135.37946121168736        90.638191605212455     
 C        82.224620886834373       -136.16091102872815        91.264920391303292     
 C        84.120094698948748       -134.98668590290634        89.359324967542989     
 C        81.964981731875056       -135.72104097463480        92.706080608307587     
 C        85.490996770024168       -135.65462444370135        89.248299667535520     
 C        80.965875925121892       -136.72536844119094        93.281367374635423     
 H        83.308282111016055       -134.31097991604886        90.841504342161159     
 H        84.192110101268085       -134.67748762013960        90.449910364671425     
 H        82.507224837258249       -137.21345813784444        91.284404133598741     
 H        81.215890352204767       -136.01052318786111        90.880282602857704     
 H        84.038895005077350       -134.02441374509476        88.853816385969694     
 H        83.787571623882144       -135.95485700091177        88.984927928265563     
 H        82.884260867110044       -135.90280722132985        93.262845227229860     
 H        81.581222355847999       -134.70745329254015        92.822135793638182     
 H        85.479164775205760       -136.15544150184547        88.280238621080841     
 H        85.742453936814115       -136.46773119516325        89.929274530648712     
 H        86.265018660383021       -134.88857908196292        89.201773694571131     
 H        81.905592082802031       -137.27115691599832        93.365915704421568     
 H        81.025741794188249       -136.44849133634014        94.333914347717993     
 H        80.371999895708811       -135.83286762204006        93.478480364119477     
 C       -6.9277613307188357       -63.729525594867944       -117.88626062354115     
 C       -8.3143132825903265       -64.355441067347186       -118.03970281484604     
 C       -6.5925322170622440       -62.256500053467178       -117.65034093090122     
 C       -8.0397006405470162       -65.613563278216461       -118.86405545912586     
 C       -7.4300673612756984       -61.499879139030917       -118.68179661101419     
 C       -7.2529345180560911       -66.655816261792793       -118.06872612687492     
 H       -7.0263737795063950       -64.095917002232625       -116.86443239242837     
 H       -6.1038700331711162       -63.887503898649420       -117.19031090358779     
 H       -8.9982558721913470       -63.911263830670464       -118.76291033464854     
 H       -8.7913699658175108       -64.730442325383379       -117.13422451083183     
 H       -5.5902840455794136       -61.870679201448013       -117.83673002175982     
 H       -6.8486399784679186       -62.013727249927037       -116.61904551889445     
 H       -8.9135871543810730       -66.153103135001103       -119.22918429054519     
 H       -7.5392039484370450       -65.215047437824623       -119.74654525280225     
 H       -7.2994482251171942       -62.057142163718240       -119.60942608849400     
 H       -7.1331714723437640       -60.491690054223213       -118.97077344379427     
 H       -8.4843937777537093       -61.568813215593423       -118.41394606476217     
 H       -7.4199422285971970       -66.489472013792735       -119.13293378596200     
 H       -6.6545401214054740       -65.951590066170994       -118.64673095026178     
 H       -7.1111780750143199       -65.578755380188568       -117.97959174322411     
 C       -138.79482556901868        17.777745560539195        98.831149756493332     
 C       -138.46295294318494        17.383734473957038        97.391546753457348     
 C       -138.27336600223171        18.279737301606897        100.17797013518567     
 C       -137.48286633552132        16.247618528204743        97.685675635557985     
 C       -136.74732947188670        18.361775042576678        100.12976779528594     
 C       -137.47583853345640        15.381087708647319        96.425947146929971     
 H       -139.50208806523938        18.605941606019957        98.875546701426487     
 H       -139.30478566712139        18.082551534895408        99.745006449696731     
 H       -137.49546021859686        17.670395535365572        96.979377748039212     
 H       -139.23350355146246        17.456319855650129        96.624029293909999     
 H       -138.34877613980998        17.637512534712968        101.05544416524910     
 H       -138.68189728004023        19.214876202681836        100.56100731704433     
 H       -136.52241880479212        16.693851823696093        97.943583195104623     
 H       -137.64150902829743        15.641163341479974        98.577384463648741     
 H       -136.48135370298465        18.955239315034557        101.00450028752320     
 H       -136.29153382027090        18.920256289610847        99.312180471943023     
 H       -136.37790961802457        17.355445494980621        100.32707423818594     
 H       -136.49801034011176        15.859851584236880        96.373629759217621     
 H       -137.01887650579212        14.480303329276786        96.835670460279573     
 H       -138.21057993517749        14.793591665871629        96.976495466141955     
 C       -5.3289613847474655       -110.58993940367132        31.212992461604362     
 C       -6.0529285716040020       -111.74262761392838        31.909427934591324     
 C       -5.4061667235276651       -109.26835059924804        31.978030556747040     
 C       -7.4996104129403260       -111.86873455534190        31.430836600317033     
 C       -4.0778430436392750       -108.57191596353017        31.680749305818033     
 C       -7.4415555791383055       -112.32983027194750        29.974175563424719     
 H       -4.5567429966228534       -111.10173447787109        31.787313425090481     
 H       -4.5668621459800738       -110.65477773196989        30.436396824408835     
 H       -6.0795129651943185       -111.42071207568893        32.950467624739645     
 H       -5.6259410896132955       -112.70819446368678        31.638388609300456     
 H       -5.4394825574624770       -109.24990365248514        33.067365115369405     
 H       -6.2757874980389863       -108.71987758652797        31.616040078618127     
 H       -7.3635985372727175       -112.56851657191935        32.255400600469201     
 H       -8.0383825294505336       -110.96036140099054        31.700434115741551     
 H       -3.1510382931144720       -109.05042074895503        31.997239411854114     
 H       -4.0750068251489324       -107.64386696272258        32.252428445621376     
 H       -3.9951822085319164       -108.27032833779526        30.636569196318881     
 H       -8.1370625856527887       -112.69569795759503        30.729497207534692     
 H       -8.3738298756466438       -111.85747496442484        30.283764123115091     
 H       -7.7663502083784399       -111.28940186604389        29.963351180700613     
 C       -85.478693203417279        26.439991521138332       -102.93228691605370     
 C       -86.942695181590921        26.373041663110207       -102.49633176501011     
 C       -85.148773690915974        27.873814323144931       -103.34839542079355     
 C       -87.828054896910970        25.363999114807186       -103.22832370943327     
 C       -84.559317205454406        28.422576437196945       -104.64810397123469     
 C       -87.187788988477166        25.185862690744184       -104.60533784324294     
 H       -85.137837284113616        26.625961956143794       -101.91379182518635     
 H       -84.736678890210271        25.739365913459341       -102.54935283934353     
 H       -87.707528654489849        26.766616345280458       -103.16583063652610     
 H       -87.267842510168819        26.704844092517199       -101.51028594673367     
 H       -85.130527859898223        28.735732695491905       -102.68141431564891     
 H       -85.806641053936218        27.750934669986002       -104.20875066668917     
 H       -87.875438135787277        24.459753829380990       -102.62153277541526     
 H       -88.893952635944899        25.574330287956389       -103.31620359522995     
 H       -83.506339451738981        28.553913504785829       -104.39892869743450     
 H       -84.829554446946105        29.454624254362564       -104.87159705869125     
 H       -84.541716338342454        27.687625629620552       -105.45286327373023     
 H       -86.967666006629216        24.267152008701125       -104.06163158940926     
 H       -87.981217303775779        24.544371351641182       -104.98882232837114     
 H       -88.170876654310078        25.638573767658404       -104.73453264030195     
 C       -70.614672890614273       -19.603667201528758        43.046798855511469     
 C       -69.997973948112346       -18.994495430261303        44.306335741596143     
 C       -69.944147468737867       -20.948651110511111        42.765276478366552     
 C       -69.740909386915760       -17.496649457228749        44.138359150278397     
 C       -70.856219120116378       -21.877728996747727        41.963540398922603     
 C       -68.841557817662931       -17.538052638921542        42.902521998132308     
 H       -71.409647083218573       -20.085832167909114        43.615686358128784     
 H       -71.630326833594395       -19.361203291863816        42.734135541445639     
 H       -69.036594814315322       -19.480029174074215        44.473987597743132     
 H       -70.598161433019243       -18.940691673469935        45.214619904343223     
 H       -69.586392567866497       -21.453884181349853        43.662411355354585     
 H       -68.926640741118447       -20.788620371918711        42.408667069509463     
 H       -70.787170776731443       -17.801894117571468        44.154566788227449     
 H       -69.332059413334861       -17.093660863779309        45.064934539523385     
 H       -70.287782339491997       -22.807301360221807        41.933964492965366     
 H       -70.909614340172496       -21.656260939527595        40.897613167142403     
 H       -71.765101930268642       -22.150949684953048        42.499621081508401     
 H       -69.719617405914747       -17.015606139388943        42.522836666975614     
 H       -68.324392240935339       -16.587120971829357        43.030462276988949     
 H       -68.043849040697594       -17.630398119125136        43.639565416417803     
 C        21.517288498061443        81.065050181614154       -36.899530628168868     
 C        20.676519108766019        82.027124338269147       -36.059672834942631     
 C        22.541208222627905        80.379349915362667       -35.994409329210924     
 C        20.971015243266454        83.388771049625376       -36.689776915020673     
 C        23.250851738879664        79.466967870273052       -36.995311963656427     
 C        22.468459975489321        83.478454670353059       -36.394045523551043     
 H        20.805555275565002        80.251337654778496       -36.760218913797836     
 H        21.129142810861055        80.617872745790592       -37.814667365206013     
 H        21.043856235448285        82.295533005177433       -35.069157698343510     
 H        19.593214246318205        81.930253414160674       -36.131551851620486     
 H        22.330874678755610        80.209468796975898       -34.938473608428907     
 H        23.184155679947082        81.222854509577431       -36.245842412785684     
 H        20.511522902457141        82.649333660553182       -37.345672505123424     
 H        20.310039029101510        84.138858813282084       -36.255520253175057     
 H        22.626903931829627        78.573225739293775       -36.991563779766793     
 H        24.189502434199483        79.042193440449296       -36.639500755094218     
 H        23.180228537197294        79.823594978946673       -38.022896275476711     
 H        22.597800382766703        83.177241468784459       -37.433584655971018     
 H        22.809035045832882        84.432690309925704       -36.795969590878457     
 H        22.225740806587243        84.292099718012921       -35.710547809422138     
 C        103.33550324988722        16.218055291796734        4.7265460965457873     
 C        102.19780060429551        15.308008005860415        5.1905370744468398     
 C        104.54227710821471        17.156840961629271        4.7117397934364194     
 C        101.86697178041513        14.115745011734052        4.2922597648644825     
 C        104.09545502527860        18.315903703582940        3.8202440103477624     
 C        102.44604949391704        14.313406380735728        2.8910317523970681     
 H        104.19585639041439        15.550653720425217        4.6768708666875600     
 H        104.24763809690107        16.455203768951723        4.1789416334615348     
 H        101.35125931980815        15.331781849760524        4.5043135990720220     
 H        101.82323923351518        15.272246815046339        6.2135350697193683     
 H        105.59775434429258        16.896710821560252        4.7917406772726547     
 H        104.07924520709575        17.602345334258771        5.5922097429196622     
 H        102.50228632159684        13.845092887573054        5.1355999996859190     
 H        100.87360994633345        13.673166179933951        4.3661266411421407     
 H        104.74493948115094        19.140397173606306        4.1143194190025634     
 H        103.12428710605320        18.707138108169897        4.1233422374778659     
 H        104.24787131803014        18.167418062891695        2.7512158099701685     
 H        103.26918332944841        13.817416600043311        3.4053709067284501     
 H        102.14771659003115        13.365566103524358        2.4430403809067673     
 H        101.39691369139902        14.340677629568376        2.5966335022144551     
 C       -43.768991876367075        56.071064619480289       -108.66711838915052     
 C       -44.773480247250212        55.644107683374237       -109.73788997884353     
 C       -42.906531416432742        56.911203650465765       -107.72469101069387     
 C       -44.152629075922647        55.674040017361257       -111.13484695540970     
 C       -43.732190134802273        57.507778286039546       -106.58441582148221     
 C       -45.290998512853939        56.016702046440720       -112.09637630932916     
 H       -44.379208136541543        56.183091350463883       -107.77091185248788     
 H       -43.354760103510756        56.100156229381000       -107.65931592950072     
 H       -45.524429614266630        56.433072616650271       -109.69654512687282     
 H       -45.060899403860105        54.598669847583842       -109.62586335156588     
 H       -42.714005526869109        57.781838779960786       -108.35161065362722     
 H       -42.040397348716226        56.308763260296914       -107.45087103578003     
 H       -43.495751488853422        56.543140151386808       -111.17057835054507     
 H       -43.666669607482014        54.750281000539097       -111.44887359611666     
 H       -43.155290154471331        58.376638003173944       -106.26760500245081     
 H       -43.681269090718033        56.893945492584201       -105.68512922818040     
 H       -44.718393784669736        57.876592332451892       -106.86633526399193     
 H       -44.231681679629538        55.957241884225404       -112.34620075976898     
 H       -44.986007038467136        55.039466589988045       -112.47066367438494     
 H       -45.634639408156559        55.039281354003769       -111.75776192043709     
 C        63.197459900344761        6.4008373703906427        22.295587291467726     
 C        63.708921643407308        5.0293740831341962        21.853618585458850     
 C        62.828553829398636        7.5877939345073333        21.405147326418582     
 C        64.486224611780997        4.2223203787555068        22.893957615001547     
 C        63.715514350092477        8.7223771085735482        21.918823489682673     
 C        65.328853599925395        5.3460010452194568        23.498241557656200     
 H        62.245872958058690        5.8730181286817089        22.358747023085741     
 H        62.328579519589667        6.7322946784145721        22.864167069722388     
 H        64.778507540999399        4.8961439604044577        21.691335677485299     
 H        63.252928123300649        4.4805252603496930        21.029643548865081     
 H        61.867719136270125        7.8057485985026425        20.938893657276129     
 H        63.616557045525518        7.2132019006986479        20.751823701398308     
 H        63.399824697560369        4.1594945235671030        22.956311639057194     
 H        64.998894428005741        3.3960164865238198        22.401523257430085     
 H        63.218859692327733        9.0995167785858655        22.812803189701267     
 H        63.571942441649547        9.5755372644537253        21.255796427839275     
 H        64.769344728218556        8.4492077697690799        21.972861024802640     
 H        64.453607526404724        4.8808959436665038        23.951806849026688     
 H        65.571692568868770        4.5186253313534746        24.165008856721716     
 H        66.106641361091746        4.5937582411929965        23.366799779060099     
 C        83.539454090307473       -43.667898057653098       -76.063039417434013     
 C        82.274164265732040       -43.778594124766208       -75.211787961898352     
 C        84.932657716896259       -43.584542318211618       -75.438638599690051     
 C        81.049646554501635       -43.513747148619132       -76.088288581916700     
 C        85.794997702364796       -43.366643687195314       -76.682315035145265     
 C        81.577161073484433       -42.552863109581978       -77.154248824753921     
 H        83.328521280057473       -44.715612049291188       -76.277288696619308     
 H        83.260602182802813       -44.036419534389609       -77.050224082128850     
 H        81.793324677655235       -42.899895928925289       -74.781924295935710     
 H        82.164236557685285       -44.650873011051488       -74.567470163661028     
 H        85.287428088179041       -44.208140927880891       -74.618051747632094     
 H        84.734017394091595       -42.514704430030378       -75.374693820103076     
 H        81.057837633836385       -44.601996587111287       -76.149492961963503     
 H        80.251797102555443       -43.107539613416670       -75.466571806365494     
 H        85.788594306361134       -42.443643485192688       -77.262081781523307     
 H        85.791645775020314       -44.119572754095053       -77.470468951762598     
 H        86.847932941263139       -43.403411050838102       -76.402894993418869     
 H        81.461525853332574       -43.511844571419218       -77.659306233923857     
 H        80.605841946660831       -42.402574610347372       -77.625473294487463     
 H        80.816886812273196       -42.037861699063484       -76.567003928391856     
 C       -68.355383119775709        75.780219165616700       -82.768044255325989     
 C       -69.292556792592208        76.866555706514447       -83.296645575091716     
 C       -68.087030013265263        74.404522741070593       -83.379016415934117     
 C       -69.426842178899250        77.972634888468193       -82.249555710385735     
 C       -68.381043857449981        73.493318681749216       -82.186915739940702     
 C       -69.756617104660194        77.369432580359089       -80.883819124356421     
 H       -67.596340368274099        76.388077824034355       -83.260448508382595     
 H       -67.286069482568649        75.745275339340367       -82.559604067056227     
 H       -70.349820531860800        76.890304820480452       -83.032582339790849     
 H       -69.122941377155712        77.244013312008846       -84.305038540411971     
 H       -67.354549851348068        74.278647873980049       -84.176342177914989     
 H       -69.137900763663382        74.434695757680217       -83.666871038750713     
 H       -68.468646229845675        78.488859457666820       -82.190626429959067     
 H       -70.176192587923083        78.728801393497676       -82.483620317732885     
 H       -67.406685871355322        73.201061709812862       -81.795364608183206     
 H       -68.714555722997730        72.534111032549916       -82.582883644513018     
 H       -69.123716706725318        73.908305686889932       -81.505503329084021     
 H       -68.673871983263325        77.479860381722006       -80.824081022383481     
 H       -69.887295486468190        78.288954289959079       -80.313290449569635     
 H       -70.740268114031124        77.800682236805159       -81.069707283377937     
 C        148.73094915211041       -128.71792354943162        102.13378582715855     
 C        148.07724932304004       -130.09851131860873        102.06674180147179     
 C        149.90198547149063       -128.66310978243013        103.11537143841592     
 C        146.61584176098833       -130.14145078211547        101.61920954496073     
 C        150.77435005765736       -127.42858852469615        102.88563584307448     
 C        146.17717884697251       -128.67886578596583        101.69833588005217     
 H        149.32948783571987       -128.99316197704835        101.26539924063479     
 H        148.63625530843331       -128.01569142512764        101.30553274818270     
 H        147.26560451438314       -130.20049673206108        102.78711095439590     
 H        148.63261047715483       -131.03545995105330        102.02430126928429     
 H        150.52834373127297       -129.46539399307156        102.72535173189915     
 H        149.49563149288821       -128.80715053385589        104.11648519226773     
 H        147.06299523316753       -130.62783041812611        100.75226749983453     
 H        146.06553915367826       -130.81599850293992        102.27514583719535     
 H        151.68411410719153       -127.67038358498169        103.43514872800029     
 H        150.45754477243668       -126.53853278473865        103.42926734164479     
 H        151.11612948806544       -127.33292993905458        101.85503589014047     
 H        146.16249353222557       -128.85900860160297        100.62342525442887     
 H        145.09753368259064       -128.82208472259845        101.74254710015283     
 H        145.86708447430837       -128.95602640294311        102.70586923369092     
 C       -14.291561009586468        51.220868336294075        111.60686749786261     
 C       -15.586636265661381        51.308198207568736        110.79878673314265     
 C       -12.906604302579654        51.515491607283259        112.18387096717474     
 C       -15.438254864773464        51.491958887745980        109.28813919903969     
 C       -11.890938655880545        51.594466585187803        111.04368353355946     
 C       -14.087891197011633        52.122888881930784        108.94713153998714     
 H       -14.489762701330635        51.842642323711630        112.47991573200807     
 H       -13.701773396883777        51.174737255056229        112.52235783443967     
 H       -15.877743990890592        52.270407075932447        110.37746687280368     
 H       -16.525424218245796        50.892558802740126        111.16487553148941     
 H       -12.396074406513810        50.751310685986375        112.76994839026069     
 H       -12.803976083120636        52.386353685065508        112.83130183631573     
 H       -15.517553575431803        50.444748025479761        109.57996285640792     
 H       -16.306102281013651        51.828378360588417        108.72089777602011     
 H       -11.761126705073492        52.476424669305800        110.41646853601584     
 H       -11.857787106864919        50.794076419296694        110.30451063784990     
 H       -10.883554497623335        51.505597422503314        111.45035225186166     
 H       -14.124526135485981        51.283678522342406        108.25252101100797     
 H       -14.406212996300177        52.799911620481353        108.15440748337578     
 H       -14.541592420958057        53.020495702772543        109.36731861027272     
 C       -47.612090109482978        97.259351145596369        55.047206110635464     
 C       -47.872313538523478        98.658533155405934        54.488265654240813     
 C       -48.614560730576102        96.856959705234601        56.129321992862849     
 C       -47.618069769822810        99.739789182094569        55.539020814622070     
 C       -49.839882988204501        95.944903492857648        56.061646645901412     
 C       -46.122702157230279        99.877664573516697        55.826609119072906     
 H       -48.183717950685832        96.853224764594813        54.212698483684953     
 H       -47.059867867794523        96.520894107722683        54.465973118965529     
 H       -48.922994663422827        98.712516468916846        54.203213056019663     
 H       -47.212784043492789        99.047889880543991        53.712687044435881     
 H       -48.699555003857178        97.318220161456082        57.113250217173210     
 H       -48.367815463206988        95.812805566443231        55.937074930197227     
 H       -48.058636983369048        100.13592361204263        54.624101180069680     
 H       -48.299703420813728        99.806628356976844        56.386964301635921     
 H       -50.693355415937127        96.620218130306185        56.121936319909587     
 H       -50.031890892059749        95.251561178507970        56.880493040375072     
 H       -49.881247680045696        95.464947772683715        55.083878018302322     
 H       -46.340769700288149        100.81793333314604        55.320208936356075     
 H       -46.175809651494838        100.37945653662402        56.792779084418868     
 H       -46.336160334431909        99.161793671117067        56.620375104829215     
 C        46.747989205134246       -121.79155272254938        129.60921494632086     
 C        47.135964523033351       -121.06415940382647        128.32149793059949     
 C        45.303095037833231       -122.29160968607282        129.61726380764085     
 C        46.869254769026604       -119.59628337404052        128.65623178171302     
 C        45.078047471239636       -123.41389994632280        130.63099913936509     
 C        47.087733742419267       -118.71037389681113        127.42933639320835     
 H        47.163748627150099       -122.53095982875327        128.92472882765529     
 H        47.413850347909410       -122.22639549131472        130.35462807495381     
 H        46.439817866595654       -121.10208707207360        127.48361886721220     
 H        48.188488229876526       -121.08481861952204        128.03889038483885     
 H        44.639932608786751       -122.31776943637057        128.75260706381277     
 H        45.196008841692326       -121.67260026677869        130.50802747163354     
 H        45.980557569282844       -120.21966813854992        128.75476407471200     
 H        47.213486178001737       -119.21478952659395        129.61751595021579     
 H        44.075834909096713       -123.23051909989147        131.01835082584387     
 H        45.688524444648095       -123.41636701080722        131.53400068192630     
 H        45.012968543564391       -124.33879395236133        130.05790592880450     
 H        46.430963154486982       -118.48273269712273        128.26893856515690     
 H        47.380053612856756       -118.27505721529242        128.38492440271671     
 H        48.029833146348956       -118.72891609036878        127.97724594573842     
 C       -144.43251718973292        79.244549572598189        103.02661656590945     
 C       -145.55870450898024        80.123742279011012        103.57119273302121     
 C       -143.05128819554631        79.184886753345154        102.37355619774394     
 C       -146.74699448363015        79.170146917181341        103.44288168840730     
 C       -143.03967440120110        80.353226919014034        101.38730705221036     
 C       -147.98111097604928        80.013720071666000        103.76410086353422     
 H       -144.02192799500688        78.585720405936456        103.79177057680677     
 H       -143.76350940504173        78.412825213778575        102.80579251335600     
 H       -145.97856204212670        80.892080733249415        102.92198112845368     
 H       -145.54023601688999        80.383698674332962        104.62957905388279     
 H       -142.76343857777357        78.344619258589546        101.74173886739680     
 H       -142.30242353736401        79.272288985148265        103.16074272837481     
 H       -146.72730922239742        78.745640716330897        102.43913524639632     
 H       -146.74005815391058        78.248649753539169        104.02502851663628     
 H       -143.85953048104710        80.159709176384595        100.69557964699963     
 H       -142.19428479458318        80.205549321251340        100.71528934386006     
 H       -142.97738933570503        81.324834806055222        101.87740779043820     
 H       -148.34800938445582        79.176728224082410        103.17002162673251     
 H       -148.33209927820698        79.356521920090515        104.55971244049618     
 H       -147.36271814403375        79.946704642423057        104.65919818264297     
 C       -70.282263718082262        82.798125745183242        95.448793554676897     
 C       -69.625978810872311        83.323362163427390        96.726000567671022     
 C       -69.561639839835863        82.814838311491002        94.100363743166469     
 C       -70.051187569876305        84.791246678194142        96.677488110468175     
 C       -69.909379464826003        84.105492902655399        93.357983194176938     
 C       -71.571741734935145        84.920359452172789        96.772807972176253     
 H       -70.104882607458862        81.828228027327413        95.913480913193183     
 H       -71.080571836953581        82.134948325078412        95.781959916243906     
 H       -68.555899165749736        83.530409009640678        96.713304858994448     
 H       -70.008544302385360        82.967817372071522        97.682730180256414     
 H       -69.869358537169305        82.119806005407312        93.319121595464040     
 H       -68.481363015733962        82.669599730479334        94.103155347483707     
 H       -69.445883586329941        84.556081927149478        97.552933437838547     
 H       -69.534171353887089        85.456307525899504        95.985759574125808     
 H       -70.982524857764602        84.286138163708515        93.419839210587185     
 H       -69.623024156329890        83.982318935274733        92.313507789368018     
 H       -69.405308715351254        84.945701144357301        93.835542446266246     
 H       -71.377320152697720        85.418720925712975        97.722511100955614     
 H       -71.817603930787556        85.938874982173019        96.472345192311622     
 H       -71.574050473575824        85.010773526417481        95.686566769958347     
 C        118.73700253403803        126.99895520411530        69.659377311821586     
 C        118.41385667436174        125.56579589374957        70.083018781008789     
 C        120.17518596015572        127.49588326018549        69.509270883142918     
 C        118.09764044825384        125.80214427095972        71.560174031500978     
 C        120.79270572000149        128.46792839878498        68.503468359340928     
 C        119.25325068477626        126.62514100553436        72.130333924596172     
 H        118.39872743772145        126.64722731900531        68.684719707527989     
 H        117.83807735070414        127.36720278775759        69.164981501308631     
 H        119.19895614444690        125.08581864985248        70.667262464897618     
 H        117.84896557535994        124.91599225119145        69.414622736916456     
 H        121.04312126340565        127.07878177300609        70.019971034233478     
 H        119.80852286788212        128.51720543018118        69.612028984854817     
 H        117.30298157516845        126.26536055514201        70.975325462534400     
 H        117.82058369432490        124.85145878993548        72.015736022672115     
 H        121.37122370104206        127.84962976031683        67.817083898971205     
 H        121.50874601933671        129.03262714724815        69.100545953125703     
 H        120.13631536632145        129.08323096568529        67.888119302704141     
 H        118.35274905683281        127.19975903768605        72.347153828688292     
 H        119.07789498659776        126.31991540157280        73.161928655864870     
 H        119.42155966417373        125.57544846908829        72.370994766247620     
 C       -52.769839788049495        99.349373057059609        2.6338131818709853     
 C       -53.498400594006974        100.06888223635312        1.4983191515322183     
 C       -53.055947614852833        97.952299458026928        3.1853279830913075     
 C       -54.014175285381967        101.47608467204512        1.8009718493613851     
 C       -52.879855606486558        98.110226130317557        4.6959212161021346     
 C       -52.842832391655747        102.44866876676237        1.9419575252116403     
 H       -52.048738650261527        99.128453365441317        1.8468521591501743     
 H       -51.733534614061668        99.051371237103893        2.7930819139336380     
 H       -54.577420228529192        100.20500112099450        1.5710396968432132     
 H       -53.341872827970384        99.804935123685155       0.45240760567628824     
 H       -52.875844097239337        96.990100308904104        2.7059163150688943     
 H       -54.090823789129374        98.291660900889610        3.2296578200162234     
 H       -54.637570459517171        101.78613820324045       0.96231505871981493     
 H       -54.633305533771505        101.54854593308927        2.6951346798573703     
 H       -53.197191577740504        97.151525782938563        5.1061545780118189     
 H       -53.525496456616381        98.819400123840566        5.2139175011976739     
 H       -51.806743846071512        98.172740373971607        4.8765399829303551     
 H       -52.853566238385675        101.87099704402966        2.8662302677779987     
 H       -52.081799445727746        101.70406942671374        1.7085037669186591     
 H       -52.840036937780276        102.04488619508132       0.92950910842174950     
 C        67.097271364043550        82.259178162156317       -126.50808724375138     
 C        67.728543098046117        81.455462362698498       -125.37081954379084     
 C        66.113537721442086        83.065032060603002       -127.35703283374659     
 C        68.392711634419214        80.285528635136814       -126.09743920479427     
 C        64.948460893360974        82.107966952417414       -127.61092943774803     
 C        69.328672986155894        79.632233500074292       -125.08007852263653     
 H        67.283449239533383        83.295447613527813       -126.22598185240744     
 H        67.029980948165317        83.092478886927779       -127.20750270191108     
 H        67.074120889083773        80.833347230107080       -124.76024246879982     
 H        68.545746263624153        81.927227425635962       -124.82518530517399     
 H        66.373278151210343        83.387506738788261       -128.36532097541635     
 H        65.831533700229556        83.954107130393169       -126.79301219766546     
 H        67.617076247865739        79.539700428713431       -126.27130690216320     
 H        68.948602916176668        80.550478365482078       -126.99682042779880     
 H        65.322449356684331        81.200741924793974       -128.08545579228399     
 H        64.240494740815734        82.584074298774269       -128.28931410259503     
 H        64.546550920493601        81.829184171989283       -126.63684085927298     
 H        68.405605890720338        79.073397656505875       -124.92596955305432     
 H        69.721281668673839        78.824059526021628       -125.69717918975816     
 H        70.108181080835678        80.001347467741837       -125.74657832821585     
 C        98.775455115176314       -112.33181543916183        122.79917211630821     
 C        99.280695148682582       -111.26664611816824        123.77281875681307     
 C        97.960740123514981       -113.42684708716617        123.48836453891674     
 C        99.821872674457978       -110.04183268578639        123.03471318103435     
 C        98.306467013916603       -114.63598977483393        122.61871640425952     
 C        100.65830015309783       -109.18138758212812        123.98227017011487     
 H        97.925744605202141       -111.68500445348006        122.58070563829934     
 H        98.665384053790262       -112.10936570636453        121.73780485627873     
 H        100.12577184204929       -111.75794598155849        124.25507370389977     
 H        98.469062396072502       -110.84831401742348        124.36809224182079     
 H        96.954854115974129       -113.29863174503738        123.88818224222248     
 H        98.859017835710418       -113.58466823476603        124.08526458389593     
 H        100.45541709342520       -110.39940894632487        122.22301087642222     
 H        99.056539170291998       -109.41233767526904        122.58073000905745     
 H        99.347353671948227       -114.56823240687008        122.30238775283698     
 H        97.675566422569574       -114.62490467181881        121.72992980190544     
 H        98.210022923618723       -115.52015297577211        123.24883863106103     
 H        99.699460829574704       -108.86574713486068        124.39348568822724     
 H        100.70628254830423       -109.71767978219086        124.92999816519689     
 H        101.41041494662436       -109.96922030844003        123.94052191130216     
 C        73.635965355091372        5.0170246052483645       -100.64761125505169     
 C        73.246647005795779        6.0890553398183105       -101.66595417192545     
 C        74.205462296228177        3.8083611061472249       -101.39101342075770     
 C        72.460288387604209        7.1948636964304313       -100.96120677392607     
 C        74.619841988199838        2.8510025558718453       -100.27316047906214     
 C        71.441496275164170        6.5009241538925657       -100.05657895543999     
 H        74.631168370812276        5.4414159904601522       -100.51508608687830     
 H        73.905023785262699        5.2740978429902121       -99.623101176118269     
 H        72.266558590823692        6.0982261003488212       -102.14286360531294     
 H        74.020666419888485        6.4671985052892049       -102.33378774766905     
 H        74.719579914017189        3.7908619982431007       -102.35199044538435     
 H        73.178430621362295        3.4434834924529589       -101.37796384318928     
 H        73.505345310611290        7.2965336179624769       -100.66859926505045     
 H        72.132405895100533        7.9205992033625447       -101.70545209718800     
 H        74.738137063568445        1.8920044316379125       -100.77756980022839     
 H        73.788109237427591        2.6257309386564662       -99.605647664417958     
 H        75.576643078307228        3.0726057699313447       -99.800377546422069     
 H        72.171801629795297        6.9479595392222206       -99.382106280845974     
 H        70.917852049890286        7.4198270859647337       -99.792923675623172     
 H        70.905583617284009        7.0117806772128999       -100.85653096019180     
 C       -34.269453842362267       -69.041010831083440        13.224416938764879     
 C       -33.317536170209195       -68.262692285343803        14.133215038895161     
 C       -33.979744934884010       -70.335231120237779        12.463559857765869     
 C       -33.842712502641163       -66.856623374967910        14.424764214698136     
 C       -33.042604156061401       -69.823293369112847        11.369243614797313     
 C       -32.951747359005523       -66.059423450378489        15.377913917546802     
 H       -34.641212683748932       -69.426146034596968        14.173925364852321     
 H       -35.241578229532401       -69.509457094139989        13.378144951310237     
 H       -32.424124082610184       -68.157243992100163        13.517751393068052     
 H       -33.257056212444617       -68.706606958021268        15.126885970175408     
 H       -34.906997843909409       -70.701702739587958        12.023104863128106     
 H       -33.344855600554190       -70.945626046995329        13.105769801443513     
 H       -33.954269325714201       -66.426199721137550        13.429580565946035     
 H       -34.821850970302933       -67.016065371997783        14.876390347072526     
 H       -32.358686779581959       -69.007162633167070        11.602240411683551     
 H       -33.673458406484045       -69.391958317786475        10.592022269448263     
 H       -32.495183910202492       -70.631396924544646        10.884063514689799     
 H       -32.899037189325028       -65.303863794669226        14.594044547881111     
 H       -33.283027168260240       -65.168462306373399        15.911338625677296     
 H       -33.483810774085583       -66.411896970654183        16.261526348125923     
 C       -117.42740713924374        1.1120678955305996       -40.666772021999016     
 C       -116.70832777520269       0.60926212259291601       -39.414593049239343     
 C       -117.10766068443849        2.5944043946481212       -40.862428935181171     
 C       -116.66531583755706      -0.91837213908956361       -39.366379609683634     
 C       -118.11123508552113        3.4895938118465164       -40.134888227953077     
 C       -115.79011837275584       -1.2954343880082790       -38.170681330705349     
 H       -116.60061298044380       0.81821571862673159       -41.313426744932272     
 H       -117.68613927620115       0.43985339899610826       -41.484870668482806     
 H       -117.27139994955751       0.95351059176766073       -38.547100863335331     
 H       -115.63845888204364       0.79074261389072853       -39.311902480222187     
 H       -117.02918617354847        2.8892203516369408       -41.908863506056285     
 H       -116.04442371973718        2.7695195836939326       -40.698228226939193     
 H       -117.70413496760048      -0.61421029981093489       -39.238159825162427     
 H       -116.42972886268187       -1.2939390159262563       -40.362144807842277     
 H       -117.97596943735523        3.2780777268454573       -39.074197871299830     
 H       -119.10134923029885        3.0584510503030460       -40.282840677054935     
 H       -118.08632592180560        4.5242940776895528       -40.476757940271142     
 H       -116.72438315014685       -1.6047767524142089       -37.702112693423715     
 H       -115.64392087727900       -2.3744914471933365       -38.219283276874528     
 H       -115.01277798415099       -1.5459322064463819       -38.892548871389927     
 C        19.040208197994300        26.549922311709679        83.781596703646088     
 C        17.794134587818291        26.189249463014903        82.972241000486278     
 C        20.366273143076121        25.810140772982013        83.602387490656895     
 C        17.370998346121191        24.895636899101568        83.668921083617533     
 C        21.340405628888181        26.803986317577468        84.235773686919970     
 C        15.899881533820615        24.596590142468273        83.378701651655206     
 H        19.050612114342904        27.422818562750805        83.128876314973752     
 H        18.874815026983384        27.567841257088190        84.134564332425498     
 H        17.925631895297911        25.733924633283095        81.990666878116443     
 H        16.920863722935124        26.835642876898596        83.059839702616429     
 H        20.649273231469142        25.241547599585211        82.716547337340259     
 H        20.148443047470113        25.382208238161809        84.580918948893725     
 H        17.985627200601751        24.089371754253982        83.268586429515764     
 H        17.517510236324259        24.894535345292795        84.749029003629190     
 H        22.407585601754320        26.583727030171168        84.209078834055148     
 H        21.125626278248742        26.816622924347683        85.304328869463802     
 H        21.169323934396612        27.824389030461251        83.892831463285418     
 H        16.128954144860160        23.614179864124964        82.965790364734417     
 H        15.630388074590671        23.805347544389065        84.078278960560013     
 H        15.424700251612411        24.994948719436959        84.275146399178567     
 C        138.14464174259669       -56.146668853723959        139.02200920008460     
 C        138.00694438362422       -54.891722320362533        139.88455751330929     
 C        139.17308353802079       -56.247775560161159        137.89509933863170     
 C        137.19971503427303       -53.805939541750504        139.17230928746690     
 C        139.78088984699369       -57.639087644291536        138.07582928821827     
 C        137.15266565241180       -52.629339718726406        140.14762468693104     
 H        138.59361732732776       -56.558780812486972        139.92571527310295     
 H        137.69621154581299       -56.951845541007486        139.60398935133117     
 H        139.00808640894266       -54.498985019052220        140.06224271800315     
 H        137.41412167753242       -54.941730707089313        140.79788131713525     
 H        139.75521031634153       -55.445408829345467        137.44184878954167     
 H        138.34292064540105       -56.642225077076475        137.30914782932965     
 H        137.68861114527036       -53.596715841488063        138.22083361333731     
 H        136.20245244955521       -54.053164799270121        138.80837654541435     
 H        140.38496087059079       -58.132898617331811        137.31467964576322     
 H        139.14540338241363       -58.457183106368753        138.41491154959937     
 H        140.49796737152150       -57.616316029234454        138.89642741982084     
 H        137.38343467299319       -52.192255204857481        139.17612959350541     
 H        136.15719993613814       -52.304267641271565        139.84517446993965     
 H        136.32371866387135       -53.300658291239898        140.37185276633238     
 C        94.905410810881847       -148.28248806219150       -69.007337965129693     
 C        96.132995091247579       -149.04160265244545       -69.511939573613816     
 C        93.638250923424209       -147.89597239633093       -68.243955715098494     
 C        97.001390952559660       -148.10103677367698       -70.348040864361039     
 C        93.115301147554462       -149.27364396690373       -67.836051685068682     
 C        97.570679481188051       -146.98705043363381       -69.468958415533024     
 H        95.271552531560545       -147.75695718439346       -68.125375627015273     
 H        94.385647927224454       -147.43896051258244       -68.553016604296729     
 H        96.164840359762849       -149.48346252210865       -70.507854112334854     
 H        96.702240983185050       -149.63152310888165       -68.793571296601655     
 H        92.941792114907969       -147.41864133636420       -68.933303358011671     
 H        93.958728865881895       -147.43580910580809       -67.309266643759230     
 H        97.823037987380204       -148.68827999217672       -70.758091463545611     
 H        96.488838317354492       -147.64519827897396       -71.195154269000170     
 H        93.764035439268014       -149.69374890407670       -67.067445450958957     
 H        93.139096067259359       -149.93263641275686       -68.703958817202647     
 H        92.131727527897539       -149.12262323444608       -67.391219473159566     
 H        98.261227135481164       -147.66597013847587       -68.968646593910847     
 H        98.590394815994799       -146.84096550195846       -69.825244557995262     
 H        97.634616151341419       -146.16767832515453       -70.184948250400353     
 C        12.938344487274763       -52.173386884669874       -64.381391810665306     
 C        12.538048059259138       -51.851324070459825       -62.941294830104255     
 C        11.738010746270392       -52.921065805552708       -64.962783285586681     
 C        13.871433177855389       -52.115654831881095       -62.241256076279676     
 C        12.100323068193772       -52.944706451008230       -66.448048259064592     
 C        14.287512082547646       -53.389939375281287       -62.976727477979168     
 H        12.575587159425961       -51.224319041264437       -64.776078220427991     
 H        13.744975558505953       -51.624914449135964       -64.867832279507709     
 H        12.407563578124860       -52.728799128214320       -62.307961329211814     
 H        11.875714923971355       -51.010157279389524       -62.736714212544193     
 H        10.755465452292690       -52.852820559690983       -64.495827878888775     
 H        12.323799607117518       -53.818544244331164       -64.764077769549317     
 H        13.764173143466031       -51.136757133255365       -62.708540215388545     
 H        13.710763085923395       -52.166502503365280       -61.164362536896526     
 H        11.442989316174568       -53.706171712408192       -66.867789705016904     
 H        13.074166229316619       -53.403614768663495       -66.618731230416529     
 H        11.894682490275084       -52.023269575714693       -66.992810632928510     
 H        15.112622818582674       -52.691492940058069       -63.116243726733103     
 H        14.959165588099101       -53.730799592311357       -62.188821480149251     
 H        13.833266363298657       -53.669305146711878       -62.026087922836950     
 C        60.922233930686730        66.502841833788125        11.378543456240999     
 C        60.964401424643306        65.673646510535946        12.662481927156659     
 C        61.596124299033619        67.571279643517130        10.517060234303960     
 C        59.516639031023729        65.209781551783792        12.825743458541586     
 C        60.828464097851381        68.821181106045941        10.948668026468120     
 C        58.635410553460048        66.443690423769041        12.628902746373463     
 H        60.934021833634965        65.876235528718851        10.486733161493031     
 H        60.706430359930259        66.878886961743149        10.378483996746779     
 H        61.005146587743738        66.205434180502849        13.613082631926188     
 H        61.538293305680369        64.747361535716308        12.635201536477274     
 H        62.012840449012010        67.323322015091065        9.5408611365505376     
 H        62.294340619658591        67.663490767980619        11.348980362040940     
 H        59.940872443286530        64.671980253844367        11.977866305146538     
 H        59.439263144166269        64.616840487746103        13.737079767545616     
 H        61.486571780042780        69.652880253548972        10.697131362605097     
 H        60.636532698432760        68.987075682732666        12.008734694193178     
 H        59.932967367967194        68.926397847905790        10.336201651301378     
 H        57.921149089208434        65.897409570966488        12.012860754201441     
 H        57.722700441534947        66.229051782424520        13.184771869456902     
 H        58.659284483569927        66.879232587383711        13.627818681490471     
 C       -113.30446688439217        25.870047210838930       -85.765346650623329     
 C       -112.92579131703306        26.941793215984688       -86.787993371216217     
 C       -113.45417698376954        24.586117992266409       -86.582018894229961     
 C       -113.80766956190470        28.190215592528396       -86.827657129873643     
 C       -114.01520815556998        23.634957385042696       -85.524484656714236     
 C       -115.25621649125708        27.707206691265394       -86.748567656941702     
 H       -112.27013597384318        25.628538329139118       -85.520534396255570     
 H       -113.11347199289077        26.025632858001018       -84.703549078031827     
 H       -113.56259600554714        27.081050750989998       -87.661599190668866     
 H       -111.91584809806407        27.026723433339217       -87.189118706017652     
 H       -112.46669765811083        24.252827061661883       -86.901239420449585     
 H       -114.28053967168083        24.745155684104830       -87.274789971728367     
 H       -113.18082532915589        28.258236291269863       -85.938534309479678     
 H       -113.48197681406512        28.823283715888632       -87.653035251481199     
 H       -113.14581728667004        23.215769666761581       -85.017985832760147     
 H       -114.45676498028482        22.830632285905264       -86.112862717365530     
 H       -114.66628674757941        24.031705263645151       -84.745518811246257     
 H       -115.29219318314146        27.833629679278214       -85.666521977242439     
 H       -115.83301644707817        28.591213113117465       -86.476658769519346     
 H       -115.68682483129659        28.193248761649389       -87.624032994007962     
 C        113.13536608103118        134.46692461512356        50.918373959492854     
 C        114.19803156591259        135.48581109757271        50.505514000563281     
 C        111.79750020163627        134.18783533054955        50.232761051222589     
 C        115.44005157184721        135.39329409308883        51.392456959629634     
 C        110.36925137979520        134.24768294623345        50.775314908427433     
 C        116.29718375131307        136.61182399057918        51.048436235346088     
 H        113.79506600623911        133.77312113388675        50.397285927523420     
 H        113.14045207562508        133.38445550690960        51.046181620247438     
 H        113.71582677029610        136.44037730303145        50.716184130862153     
 H        114.59580967319975        135.27261283008107        49.513335048561800     
 H        111.67493742510544        133.72101666946170        49.255438847940589     
 H        111.47692794553724        135.19482806590472        50.499779936676866     
 H        115.11172093405824        135.57223522509094        52.416311932764408     
 H        116.02731477442103        134.48210440727931        51.278635396437515     
 H        110.07423923834699        133.20302277574797        50.874071450194243     
 H        109.59372929151036        134.65675289108407        50.127760053455248     
 H        110.44121777883423        134.63582795464268        51.791319000134330     
 H        116.51535404993017        135.88044083330297        51.826626648988068     
 H        116.77777927368061        135.64270594946947        50.914502948284785     
 H        116.34714610764937        135.93879132480825        50.192497704716892     
 C        45.771584761458882       -45.894141402660637        20.327818423354870     
 C        44.260895609793302       -45.690164414763082        20.209274442283824     
 C        46.090950178044018       -47.026192881599314        19.350932511203673     
 C        43.673158496325286       -44.490027478938458        20.952293488813268     
 C        47.527872358150958       -46.939144346036457        18.835647776520553     
 C        43.795237954045852       -43.301031495771610        19.998760003954523     
 H        46.010048555097121       -45.140094957232648        19.577719103526700     
 H        46.404017082497766       -45.114633800061185        20.752668142830739     
 H        43.757313558562700       -45.807488343098989        21.168826532411824     
 H        43.644087254339098       -46.136075226682252        19.429011036736465     
 H        45.394184262072621       -47.090632387599733        18.515190433238274     
 H        45.743933271945565       -47.976141250983751        19.757475757262810     
 H        42.600185382447613       -44.663378693991596        21.034622098361559     
 H        44.148165170203860       -44.252895381952641        21.904258349329343     
 H        47.702745807496079       -45.947840250380935        18.417514614718957     
 H        47.665302476155375       -47.675475938588285        18.043796292777621     
 H        48.183737191862832       -47.053587450992588        19.698691293397612     
 H        42.854450171600284       -42.948009377130994        20.421126758776211     
 H        44.064352322206538       -42.294662478677338        20.319538518356179     
 H        44.882806182622545       -43.282869036188188        20.069226034209361     
 C        51.143401066317338        61.690446075695135        87.875737337774481     
 C        49.907145890878084        60.878246036920572        88.262835765340398     
 C        51.561787982954208        62.686152246862072        88.958032413914523     
 C        48.652644889097552        61.716083214054329        88.013643070783871     
 C        52.680415445259172        63.441650490300859        88.239884793478382     
 C        49.119499540399104        62.499852709413872        86.786616972664504     
 H        51.759556990121517        60.868372615468935        88.239944843910109     
 H        51.845511898004752        61.315836650046379        87.130882894892466     
 H        49.431551358049902        60.986864836217883        89.237572557524530     
 H        49.826588722091770        59.857412789171775        87.889325364253764     
 H        51.638430014871311        62.457336630225683        90.020985584344558     
 H        50.815164536591617        63.340581294241254        88.508170126274194     
 H        48.506960279699591        60.636217733711355        88.041327536976411     
 H        48.401486274309626        62.269300276296676        88.918612842651001     
 H        53.587986166639581        62.919341786751161        88.542554440753577     
 H        52.855111884022648        64.421769820954552        88.683672256299616     
 H        52.647097629912892        63.399643644360836        87.151204217170232     
 H        48.760971212321003        61.659013570716255        86.192860352862724     
 H        48.440988990483056        62.996429142005084        86.092977813176788     
 H        48.872462091240315        63.461703129367372        87.235967901350776     
 C       -145.29366939299038        27.421724282200103        62.400913509607015     
 C       -143.98645874355302        27.599863304823401        61.628056622588112     
 C       -145.39070094163520        26.085779062470237        63.138257506395405     
 C       -144.30095034995699        28.013851595843107        60.190158947369170     
 C       -146.88545897465312        25.928546530901418        63.419002043054775     
 C       -145.63809610994502        27.427911541023217        59.735674200640076     
 H       -144.63847937642174        27.969848210496423        63.077955758371438     
 H       -145.99450713274192        28.196760462003887        62.711147980246835     
 H       -143.57810373880974        26.807141503717347        61.001208667656577     
 H       -143.19668511530784        28.195015172793667        62.086479809841265     
 H       -144.65373337816894        25.625899734419995        63.796656955265199     
 H       -145.49171572138346        25.657641369670745        62.140964093840829     
 H       -144.25619125016246        28.862116709917768        60.873198361890523     
 H       -143.48652283866841        28.024805109754897        59.465805524680427     
 H       -147.06678000926519        26.594236468716165        64.262850060324055     
 H       -147.11172395234303        24.963387655713074        63.872182502094489     
 H       -147.54738355160120        26.256697558500537        62.617582824639541     
 H       -145.91394549202326        28.454613288821832        59.976278799100960     
 H       -145.59026696337551        27.683130807906640        58.677054587702031     
 H       -145.00445489250478        26.722296406918019        59.198360447280024     
 C       -1.9389538519805825        91.962394839236779       -116.31004761179477     
 C       -1.0743914862708621        93.223420282159324       -116.32374973208431     
 C       -3.0364775583038783        91.150221456850787       -116.99827505722206     
 C       -1.7826274964347513        93.998206169694953       -115.21201709103859     
 C       -4.3807363436700326        91.254315030558374       -116.27718282723589     
 C       -1.6261743712281806        93.268288187364135       -113.87763217076332     
 H       -1.3377513250576172        91.054160676335599       -116.35207426174722     
 H       -2.3412089718761528        90.967541750215020       -116.11884568417544     
 H       -1.4810381899538316        94.133006311793139       -116.76578108077982     
 H       -1.0354701623558782E-002   93.142237700241054       -116.54586477185293     
 H       -2.8834135668837444        90.220720380656630       -117.54663551200183     
 H       -3.3547203836708217        92.108979707776598       -117.40766990337012     
 H       -1.3108254569213091        94.978243358129674       -115.14109535511159     
 H       -2.8439708428961858        94.173457040369811       -115.38790768064857     
 H       -4.3289808620939594        90.481814135737750       -115.50993865370310     
 H       -5.1980813270498203        90.874361766947004       -116.89011244311932     
 H       -4.5593910419773573        92.195698109868658       -115.75758644766823     
 H       -2.6290647588369906        92.876608919169868       -114.04762677383144     
 H       -1.4582020487656133        92.194679913080066       -113.79248191464363     
 H      -0.55699114207081424        93.113394252848778       -114.02239086447973     
 C        80.188289425291657        66.091838926130805        57.754747010761157     
 C        80.441359318780627        65.860842734043572        56.264633808315324     
 C        78.805052918435706        65.910267257065627        58.380470126675263     
 C        81.905444203976003        66.106282825951183        55.898497794706984     
 C        78.725134339310358        64.630091106034541        59.212697976343797     
 C        82.153794806886012        65.806658337978831        54.419853772556436     
 H        80.730668377439272        65.152018250225481        57.858004838536253     
 H        81.164220950406275        66.009153575993395        58.233099208045324     
 H        79.835346856611338        66.576940083217934        55.709608166260111     
 H        80.356458824341829        64.850083909929054        55.865561786449980     
 H        77.991279693954652        65.940108329042303        57.655913257167931     
 H        78.478456427859498        66.844859741091412        58.836509231946117     
 H        81.391778732731410        67.014130196544798        56.214821721825814     
 H        82.673885799407145        65.799274300006743        56.607964695661359     
 H        77.721671432870849        64.522729853612773        59.624566441076368     
 H        79.443888914392488        64.711563461538802        60.028083862265717     
 H        78.912657244621357        63.768552669486525        58.571849557656122     
 H        82.601656229405222        66.784430076608558        54.597286911876246     
 H        83.194268691213395        65.515003101838246        54.562861800410069     
 H        82.338582188551996        64.899178282922719        54.994687278458890     
 C        95.349313756247042       -94.553121841387650       -125.46430468038400     
 C        93.987262127397400       -94.585466683813465       -126.15828603564186     
 C        96.070539149683285       -95.830404383327377       -125.03276761370408     
 C        93.252503935568129       -93.584163231905833       -125.26645494905294     
 C        96.343845595246648       -96.696168903624439       -126.26305071298231     
 C        93.605978380576232       -94.167377064445105       -123.89796732534158     
 H        95.703209158807397       -94.286575880884357       -126.46020190728309     
 H        95.779776773765761       -93.582505762388124       -125.71069056325736     
 H        93.166055535466882       -95.116325543784512       -125.67671711899851     
 H        93.938509313431794       -94.720956184720364       -127.23873305305204     
 H        95.532292983969526       -96.580707525996544       -124.45359903310431     
 H        96.983365855695496       -95.721720566639647       -124.44707549457590     
 H        93.973846494324150       -93.160441870825096       -125.96518594839355     
 H        92.203003547719163       -93.542407414839090       -125.55784033848964     
 H        95.344961634877578       -96.867378725480108       -126.66432109917270     
 H        96.636183422471873       -97.722833569762869       -126.04260053307235     
 H        96.850872041385429       -96.155090999803335       -127.06196178434496     
 H        94.026551278954372       -93.224378373638160       -123.54872263458358     
 H        92.931535610210759       -93.672989878316571       -123.19881909456200     
 H        92.722264424867973       -94.771871394279657       -123.69367281986372     
 C       -146.01333207767431        74.227743837909316       -59.008735378466504     
 C       -146.95050677969289        74.656522670887867       -57.879269458860342     
 C       -144.98804820810105        75.295696763491307       -59.390979347496220     
 C       -147.79256430205115        75.757927413153169       -58.524007950619115     
 C       -143.78880601698248        75.230940227830246       -60.337269966053853     
 C       -148.95834510527399        76.013332149851564       -57.568202292749845     
 H       -145.55640195898218        73.836692722303425       -58.099673279908899     
 H       -145.80759919067592        73.214768349910713       -59.354646752816151     
 H       -146.54452648756305        75.291329244037357       -57.091677807244615     
 H       -147.68451651403464        73.925459143595916       -57.540336146544270     
 H       -144.86080252720438        76.255620997699651       -58.890525532098962     
 H       -145.26690442021984        75.156573158575199       -60.435481075539194     
 H       -147.20175300239151        76.672989829958027       -58.482744115291759     
 H       -148.17205305114882        75.531626150102298       -59.520439613715737     
 H       -142.94057058324995        75.314579947734046       -59.657857771701757     
 H       -143.63500744349554        76.125544523857158       -60.940701121874689     
 H       -143.65612050810665        74.249257685933145       -60.792015985811098     
 H       -148.71847962717462        76.606118347775706       -58.450907785394413     
 H       -149.23262420043218        75.786839383962999       -58.598528433273401     
 H       -149.16507546741548        75.069854423133350       -58.073387709726781     
 C        43.343073517498880       -102.59649819338530       -139.98315107119205     
 C        41.895142586149866       -102.92876698979951       -139.62130242126216     
 C        43.484755074513764       -101.83905286886862       -141.30377358735996     
 C        42.138463245257732       -103.94377792623229       -138.50398919043869     
 C        44.132131287176385       -102.25451552464440       -142.62518798089937     
 C        40.856216289807563       -104.67880033864699       -138.11229324357100     
 H        42.958254215869523       -101.77742955288220       -139.37558158926532     
 H        44.207176499725271       -102.57550429471490       -139.31908380941303     
 H        41.557239510431074       -103.90038463999430       -139.98169204172291     
 H        41.145108278507280       -102.13811277555257       -139.60094599263945     
 H        43.281323482760179       -100.77784568318329       -141.44714345096375     
 H        42.965827582803414       -102.65774371546405       -141.80233108692389     
 H        42.852436617154538       -104.73870489431994       -138.71947251273878     
 H        42.591419798427346       -103.33337714917127       -137.72274576878598     
 H        45.059589260644394       -101.68309280981627       -142.66257338486338     
 H        43.634028774637869       -101.96600070738242       -143.55079755723096     
 H        44.427410937664412       -103.29737148854923       -142.50959654655426     
 H        41.770333813197318       -104.63562099231389       -137.52015761024018     
 H        41.161944341969694       -103.87301988131397       -137.44494913174555     
 H        40.624014419259439       -103.61383531700648       -138.10665737923290     
 C        113.22883960345452        111.47648035886618       -144.77714238696399     
 C        114.28079136230163        110.36905511458869       -144.84676871384815     
 C        113.82511859466125        112.87955763889951       -144.66023893732685     
 C        114.24559213617674        109.85681076716490       -143.40655774812251     
 C        113.25055057760690        113.43596209228124       -143.35711698446613     
 C        112.80487074731664        109.71950562828221       -142.91329297489108     
 H        113.37388195843728        111.29212035922789       -145.84160192970859     
 H        112.18186566183478        111.41978969789018       -145.07502115739089     
 H        115.33370138691689        110.65017649101881       -144.82552602264496     
 H        114.05809961074097        109.48722727919088       -145.44750828644626     
 H        113.57198783759731        113.66009028884015       -145.37773013761398     
 H        114.91093027283040        112.78448461401723       -144.65162697422892     
 H        114.67879746006452        109.13616030193114       -144.10016855003676     
 H        114.98163158484054        110.24441989279586       -142.70221041411963     
 H        112.17545589704658        113.51085092795320       -143.52040499298482     
 H        113.63683637642612        114.45461473954546       -143.32204417934651     
 H        113.38529197112983        112.87210461543718       -142.43407337707447     
 H        113.07675740548848        108.68092529927740       -143.10178298719575     
 H        112.99654786308416        109.58219615885869       -141.84910033515308     
 H        113.00974561279767        110.67628876977405       -142.43298860004140     
 C        18.907304838709827        91.072493753540300       -82.958334323743685     
 C        20.246355602510071        90.476242021836271       -83.393383582982750     
 C        17.571456697070662        90.448875358274861       -83.363859748861799     
 C        20.396929444383758        91.155141751220881       -84.755097051165734     
 C        16.786158814111950        91.597040812177781       -83.998575689645136     
 C        20.291866230829214        92.674937673541677       -84.624624716837346     
 H        19.189676647072357        90.662787145912091       -81.988537106655940     
 H        19.130788432877310        91.687602462806950       -82.086671355160789     
 H        20.162948200939123        89.702458725676820       -84.156536670817886     
 H        21.045406057300799        90.345197500567508       -82.663694807317214     
 H        16.873505117855867        90.076686165050930       -82.613900548877808     
 H        17.777471521390559        89.629444899492114       -84.052475516750420     
 H        21.460305622656609        90.968015948229407       -84.904479013380680     
 H        19.711536062566150        90.698838792614168       -85.469326411461296     
 H        16.613709796614291        92.373033031167736       -83.252789310094300     
 H        15.819397202101557        91.221802134847152       -84.334236203815649     
 H        17.417909659232780        92.023075086347717       -84.777989389856742     
 H        20.418041045565797        92.124170463461283       -85.556738080666761     
 H        19.506412808266045        92.195116977178685       -85.208521097184416     
 H        19.322736889722233        92.265749696140432       -84.339224127861343     
 C        129.07186528784018       -62.827240116301596       -71.688661933826168     
 C        130.51359818175627       -63.003772670159016       -71.211081050087259     
 C        128.64040311032088       -63.177465313069753       -73.113099934201060     
 C        130.70835013804691       -61.669254790056883       -70.490682061186888     
 C        127.12523410411907       -63.001603369085707       -73.007380506792458     
 C        129.65735736438421       -60.652164785732282       -70.936532965769956     
 H        128.89562978797801       -63.699542762073364       -71.059274014145586     
 H        128.46501736387282       -62.804069635325789       -70.783510699467655     
 H        131.24491547308870       -62.428411499979845       -71.778738137186835     
 H        130.84877958279301       -63.973036084886203       -70.841917408047522     
 H        128.88472009211918       -64.221303742357364       -73.310103870553661     
 H        128.96803711429359       -62.359112662521007       -73.754235599911965     
 H        130.45737637155378       -62.483165080321911       -69.810489345485564     
 H        131.72525098127292       -61.306336353942186       -70.341340454975196     
 H        126.67537920461696       -63.096684432305899       -73.995656803794731     
 H        126.92728679601758       -62.004371632216063       -72.614384634199240     
 H        126.71146350353970       -63.790492191316048       -72.379249682307645     
 H        129.34768293020605       -60.447562946645739       -69.911672106640808     
 H        130.03725072738456       -59.688299976141330       -70.597791687296152     
 H        130.19469496501736       -60.129385083126621       -71.727778618644066     
 C       -1.8265533449706486       -5.9830818536932631       -147.99314350935566     
 C      -0.37651652722511431       -6.3716122793519947       -147.70283626426121     
 C       -3.0854157560299487       -5.4317809753673032       -148.66334774274554     
 C       0.36290069164578387       -5.5257263528013478       -146.66573446323602     
 C       -2.7938199747940979       -4.0357533444112521       -149.21463704519803     
 C        4.7686658516320701E-002  -5.9992303977227630       -145.24648288836943     
 H       -2.2030030393868936       -6.8161719387832775       -148.58673137700427     
 H       -2.8877821161818682       -6.1784392562404680       -148.14718581813966     
 H       0.42198583703741921       -5.7212935353263985       -148.06001903863924     
 H        2.6587221045260567E-003  -7.3751352971129682       -147.89588453808565     
 H       -3.9446482485361982       -5.1605505668801985       -148.04995260506431     
 H       -3.5562172275245150       -6.0425065801900502       -149.43371145849997     
 H        1.3711993691933957       -5.8928841473644225       -146.85712108353360     
 H       0.17913814947133005       -4.4685618977829229       -146.85739731599040     
 H       -1.9351631611624855       -4.0782885028031552       -149.88471100707957     
 H       -2.5641916850432134       -3.3814014426659846       -148.37368849371248     
 H       -3.6486742110459764       -3.6892593288464202       -149.79538324418738     
 H       0.60265732316336307       -5.1533135162882759       -145.65210849981204     
 H      -0.44471456316444791       -5.0779805033867209       -145.55783421057512     
 H      -0.70474501653185107       -5.7997820742057264       -146.00948152984017     
 C       -27.531884035974198       -13.462760631128662       -30.076307314072142     
 C       -26.447564574182557       -14.486544738978207       -29.738730189377875     
 C       -28.344379076377109       -12.170610863100588       -30.165983321485861     
 C       -27.176627992969717       -15.788570537292193       -30.071951214044919     
 C       -29.759774198905117       -12.329725327409236       -29.609943433948096     
 C       -26.137610766560247       -16.894783070673700       -29.885999668625963     
 H       -27.147505387194567       -12.963608225118321       -30.965801529303157     
 H       -28.153587780996919       -12.869800251857763       -30.747114680702904     
 H       -26.275478339744406       -14.735337147221966       -28.691548879228446     
 H       -25.555659396360518       -14.514214686683889       -30.364701066971406     
 H       -28.241897763795826       -11.413856525686946       -30.943749635320561     
 H       -28.105311269985989       -12.061134853193259       -29.108173502647954     
 H       -28.047352719482983       -15.859687868186562       -29.420122463216433     
 H       -27.671907204482906       -15.874927563502485       -31.039081521962764     
 H       -30.460098270053745       -12.459247998384310       -30.435091878573548     
 H       -30.031070541502007       -11.423958276858640       -29.067647964176604     
 H       -29.770038727312361       -13.247120654126610       -29.021402460316931     
 H       -26.935102243786044       -17.477981818395953       -29.425579743344990     
 H       -26.112955630129495       -17.806765927054244       -30.482472126655200     
 H       -25.618844630258838       -16.641761781783639       -30.810641172980681     
 C        106.54074002957331       -12.521565590340195       -12.765139440629801     
 C        106.19106531125979       -13.987143084413074       -12.505040997267631     
 C        106.88654477403949       -12.460435018905679       -14.253266799956982     
 C        106.19592333251926       -14.010358439837205       -10.976225007788932     
 C        107.23912119030760       -11.021394483586979       -14.631014548757756     
 C        106.13225962142708       -15.444342290103707       -10.449463005171069     
 H        105.50914163706918       -12.230339228506764       -12.962856347093940     
 H        106.22019761481548       -11.744219378897739       -12.071536200123404     
 H        106.97474296266633       -14.736369506495516       -12.617331278638240     
 H        105.19196566945054       -14.331246529287869       -12.772422198070558     
 H        106.09988393328388       -12.607905321253662       -14.993210885822297     
 H        107.65667641183855       -13.138432853846691       -14.621120375548889     
 H        107.23182579984993       -13.709228750313663       -10.820254104466326     
 H        105.42550478084638       -13.338674009454659       -10.597549235064243     
 H        106.43198663724171       -10.323763769371929       -14.854498460058100     
 H        107.78241273633148       -11.068590101331479       -15.574787242996354     
 H        107.92931420190386       -10.566094015619932       -13.920778603149003     
 H        106.03380722144280       -14.534711860571033       -9.8570277474375487     
 H        105.09960137601067       -15.123496842225125       -10.312440679348430     
 H        105.32154485991491       -15.487702030637301       -11.176760392642819     
 C       -34.701791295000149       -19.415991269706073        99.010474842647781     
 C       -33.705966342343771       -18.537789097292897        99.768719267642595     
 C       -34.347803556278386       -19.608195314862769        97.535486303201665     
 C       -34.406327947427513       -18.472556021247261        101.12631977983236     
 C       -35.736193240235629       -19.801602745273204        96.924905602951043     
 C       -35.896628107748725       -18.281596144350935        100.84280486395235     
 H       -33.942866105293717       -20.071043302757737        99.438305887301567     
 H       -35.425377545604320       -20.115666358866740        99.428778243169816     
 H       -34.039687350753077       -17.510706262888025        99.916472913851209     
 H       -32.635279988786145       -18.676696224421622        99.618934342101966     
 H       -33.398688858777263       -20.055810259935612        97.240660639326137     
 H       -34.427940195315948       -18.522833746411187        97.474918948293663     
 H       -33.932496692663371       -19.450982006615831        101.04715899094536     
 H       -33.871592554703902       -17.767735312092821        101.76301899151267     
 H       -35.552522740692943       -19.866801557509341        95.852471852435301     
 H       -36.445570647209522       -18.977266195099027        96.998069527814593     
 H       -36.072932963199669       -20.791826961786271        97.231764497043201     
 H       -35.463791645760097       -18.900939494781724        101.62840421216937     
 H       -35.796129039457817       -17.766214297975711        101.79799147376765     
 H       -35.614482465584366       -17.242074986176135        101.00980659689580     
 C       -46.646620085961658        119.40003943861602        137.04047862551948     
 C       -46.555672430057001        117.91348696273892        137.38650060499211     
 C       -47.762978654529462        119.96107257824822        136.15910108858105     
 C       -45.172493168635192        117.34559477471585        137.06688443715149     
 C       -48.962214543771346        120.84164919052901        136.51160532120764     
 C       -45.429024328273918        115.87391797093125        137.39276797703457     
 H       -46.962002928817341        119.48787834339824        138.08015067996655     
 H       -46.064242554985334        119.91415295967147        137.80508550779621     
 H       -47.282827114665075        117.38382450099789        136.77103025451879     
 H       -46.601411144163038        117.61161216493252        138.43286553910394     
 H       -47.966165833936181        119.66074532234133        135.13118159025302     
 H       -47.484257874831400        120.96346309866431        136.48410569958256     
 H       -45.659173756833880        117.89663085538960        136.26214775063863     
 H       -44.419154799239529        117.88167554809111        137.64411815113669     
 H       -49.866780273666592        120.23421828065889        136.54141156623291     
 H       -49.062568108084953        121.60198060532731        135.73705684952358     
 H       -48.819047356295464        121.26918206488406        137.50398570087651     
 H       -45.180100117220626        115.82820407187714        136.33255719033170     
 H       -44.413686267905945        115.57197588851220        137.64971074606467     
 H       -45.180886546153850        116.18426866873187        138.40776062046510     
 C        59.303238543407311       -25.189957280815857       -24.258824515214474     
 C        58.998443393007733       -23.852164101188063       -23.584102217694078     
 C        60.346407263790709       -26.264313331025313       -24.567692088340468     
 C        59.052575349848567       -23.965961348583821       -22.060304050543607     
 C        61.362074146262316       -26.367672798400474       -25.705926951782246     
 C        60.499955710087050       -24.007715020871451       -21.569195444893168     
 H        58.691475481379101       -25.998400090620137       -23.858491904128933     
 H        59.225569359269720       -26.171404728758187       -24.726615617374637     
 H        57.960390654165643       -23.669566386782801       -23.861959392414470     
 H        59.768001004008973       -23.109985469144139       -23.796356738256414     
 H        60.405117817479685       -27.242250634276207       -24.089893273591933     
 H        61.116539518815465       -25.493736549366886       -24.532939760028466     
 H        58.594723033382380       -23.036182667728092       -22.397917388500030     
 H        58.336357476789708       -24.621886929563811       -21.565436751600899     
 H        60.898343222963170       -27.057129213727755       -26.411407917955390     
 H        62.240767547517393       -26.941764420218686       -25.411959646552720     
 H        61.545946792446813       -25.442491594927159       -26.252123473082701     
 H        60.158373625294068       -23.426973370916762       -20.712363630374263     
 H        60.838114941780255       -24.626284538657966       -20.737859119095791     
 H        60.670244680787015       -25.003601647760217       -21.978232706491880     
 C       -121.74406380075706        103.57348742648023       -106.11200322602760     
 C       -123.14968486161345        103.45661477368212       -105.52173954231930     
 C       -120.81290611414599        104.73586206647255       -105.76606758952109     
 C       -123.98916810171542        102.98739590602362       -106.71041209041863     
 C       -119.63218403989875        104.06459135302511       -105.06383389800349     
 C       -123.67101756887538        101.55932373567654       -107.15451914700895     
 H       -121.53015689109812        102.75465282150601       -105.42508712049325     
 H       -121.47946528193278        102.56756265641729       -106.43789125611389     
 H       -123.71370135526550        104.37510725955121       -105.35939131029545     
 H       -123.30697450828978        102.68732449656274       -104.76572868382657     
 H       -121.08142861062467        105.76607765804098       -105.53229092079724     
 H       -120.38341231288314        104.55280985998237       -106.75101783385058     
 H       -125.01099066844336        103.14611439131387       -106.36575715305800     
 H       -123.75011591854056        103.68793124355086       -107.51053979729441     
 H       -118.95416200312926        104.89834779103957       -104.88152589390009     
 H       -119.00546056145393        103.45090960488427       -105.71091380847957     
 H       -119.87626958887154        103.71006370168185       -104.06241870043968     
 H       -124.40891043962081        101.23522849233748       -106.42064154919622     
 H       -124.33846833229987        100.95494725968948       -107.76879802916945     
 H       -123.49207632461383        101.85924740360036       -108.18705283273421     
 C       -61.197617140480141        141.40071610162113        18.122458174685455     
 C       -59.762493011071314        141.24051139333682        18.625045664215470     
 C       -61.061897528456456        141.61734269865664        16.614978818274139     
 C       -59.944443015717539        141.82484877481505        20.026218352787492     
 C       -62.392136139260423        141.40478252136722        15.891705310960770     
 C       -58.655152410447620        141.48944810238956        20.776602968523537     
 H       -61.350680989474988        140.33036822845958        17.984520141877159     
 H       -62.037116529273177        141.05101304904318        18.723331354797100     
 H       -59.130041001188232        142.12543067261007        18.695914024688665     
 H       -59.172578658098722        140.38346939835102        18.300114815312746     
 H       -60.500352659311510        140.72635761090314        16.334064362834429     
 H       -60.561018750834954        142.57400235127628        16.466577992992779     
 H       -60.151951628721861        142.88956702912921        19.919376588478958     
 H       -60.821243922246666        141.53056862635262        20.603036726283410     
 H       -62.580076286624468        140.33198762161979        15.935173524412084     
 H       -62.204867544890696        141.51481390201002        14.823565060130123     
 H       -63.170920584877642        142.09337360669986        16.219481316478142     
 H       -59.526213663069861        141.98859656504482        21.201106243102558     
 H       -59.559514263916071        141.01187157550370        21.153631163053891     
 H       -59.132181463749077        140.54118402255938        20.528936877567109     
 C        69.561950169050647       -73.302941656180877       -49.061690073024174     
 C        70.633266089203403       -73.767873218740064       -50.048585100602189     
 C        69.245442388075247       -72.539921249511352       -47.775041858560563     
 C        70.300861778483920       -75.107741197273668       -50.705929891648232     
 C        69.107498882847779       -73.693225113166505       -46.780706442224499     
 C        71.533454122514911       -75.866633032106861       -51.198515125659000     
 H        68.814416708201719       -72.669001641182959       -49.538569310266375     
 H        68.619695236814678       -73.026839384240816       -48.588379142488805     
 H        70.826448288628924       -74.712836395750841       -49.540820119930281     
 H        71.584950644557978       -73.310061760150106       -50.318409338469543     
 H        68.593823915374458       -71.668556446864272       -47.710105311917168     
 H        70.325755183700792       -72.529118171140453       -47.630447324746527     
 H        69.720874178950524       -75.619503145773677       -49.937936392316914     
 H        69.660864786026124       -74.849746744547545       -51.549696887672098     
 H        68.191908174504746       -74.247505514204832       -46.987023604609917     
 H        69.055852318526675       -73.270228723483001       -45.777458358469367     
 H        69.944292200510375       -74.380696669233870       -46.904237089355476     
 H        70.545544761278649       -76.296990928314671       -51.034420378846569     
 H        70.688899529951243       -75.838892350894071       -51.887033786025050     
 H        71.261063075196304       -75.162512741565422       -51.984719744545949     
 C        23.187837399781067       -90.841964197304890        120.83979086006477     
 C        21.674705313795521       -90.784557405825311        121.05186808810456     
 C        24.691368493483324       -90.992602105562227        121.07333609444917     
 C        21.242634129076944       -90.680651503594021        119.58887152706924     
 C        25.071134240142424       -90.298619467944604        122.38177303586920     
 C        19.727930727445475       -90.578129564330098        119.40720199182694     
 H        23.383655688829894       -91.899553653890166        120.66298658596693     
 H        24.106540707468909       -91.214158010591632        120.38640799190786     
 H        21.163861948842857       -89.829691640429544        120.92789056308561     
 H        21.225958309601687       -91.345874426988814        121.87141022220145     
 H        25.390357887117052       -90.460771036877986        120.42783662843102     
 H        25.106892988808966       -92.000128403721291        121.05516443789878     
 H        21.809416100900343       -89.822796745289125        119.22701057122572     
 H        21.611778355007264       -91.596141483816950        119.12658299239735     
 H        25.051025497850148       -89.209635688768500        122.42431508511363     
 H        26.121511479278659       -90.525581028788537        122.56424531899602     
 H        24.532631396592919       -90.707598091222224        123.23667138129579     
 H        19.911889046591146       -89.599237300971296        118.96445012274370     
 H        19.227028687909552       -90.676879324274097        118.44416220911256     
 H        19.619622995628109       -91.647633331300895        119.22683815038420     
 C        104.17941505966985       -145.50462641247188       -98.992785283584908     
 C        105.54734314668767       -145.53007708104434       -98.310168317754673     
 C        102.68060052444240       -145.35711672282605       -99.256673290988587     
 C        106.59182286381760       -146.47313912911142       -98.908112309343537     
 C        101.70661617324259       -146.26953864878956       -100.00278443203945     
 C        107.73552688345892       -146.74981674933986       -97.931776529548159     
 H        104.05926048163856       -144.46315268212527       -99.291106210388662     
 H        103.45458275246725       -145.17363445971489       -99.736534256513224     
 H        105.76036353554643       -146.49985011484122       -97.860432171736136     
 H        105.91431725941341       -144.74504578464064       -97.648990670039041     
 H        102.09602120569109       -144.45321268102430       -99.085429345514683     
 H        102.52311753394913       -146.31732518993866       -98.765451515190406     
 H        106.23942274816700       -147.46207629112439       -99.201229001092500     
 H        106.87029504934918       -145.96488529191336       -99.831276066426810     
 H        101.92606905293857       -147.33552278682004       -100.06293524710657     
 H        101.72652340825127       -145.96205253984490       -101.04832545462345     
 H        100.67621996257229       -146.12650350179493       -99.677323816936237     
 H        107.91931829135866       -147.63419067524762       -98.541861294000867     
 H        108.65097679621122       -146.41860768573221       -98.422033606406458     
 H        107.84750920764769       -145.66889302592816       -97.847137015066636     
 C        13.215615078372259       -4.6417625910036513       -129.65229010970143     
 C        12.483376734566914       -3.3104179243273841       -129.48144109339208     
 C        13.309117904697596       -5.9684494440083533       -130.40661107664519     
 C        11.894512945974736       -3.0270557739288115       -128.09912918467171     
 C        12.909344760278369       -7.3830647727934764       -129.98603279835891     
 C        13.051740992334022       -3.1669121904647271       -127.10963215071743     
 H        14.264882782437024       -4.5007986329847665       -129.91164789364461     
 H        13.952012116338187       -5.4450855449317430       -129.63011666813392     
 H        11.397647958539318       -3.3178812461733775       -129.38533009566837     
 H        12.678848535327102       -2.4560092411999026       -130.12941991934616     
 H        13.855849970067784       -6.1284042208589016       -131.33591110491409     
 H        12.234635546991257       -6.0936952538458415       -130.27281580654284     
 H        11.642027389962061       -1.9669986568922584       -128.07403138715836     
 H        11.070853046474191       -3.6759242461221713       -127.80138072866283     
 H        12.408521523045708       -7.2713243539939967       -129.02437275433414     
 H        13.814891197975156       -7.8962572198833225       -129.66242936458804     
 H        12.413423641536589       -7.9404531227815767       -130.78069025235646     
 H        12.985130047357265       -4.2410632188872128       -127.28243982871578     
 H        14.073807077255305       -3.4039356587071561       -127.40509922261474     
 H        13.506423599421321       -2.2262603888318582       -127.42033764320922     
 C        19.675892648005131       -18.201633271730376       -126.67540233495187     
 C        20.996268905034373       -17.686571354730287       -127.24912591126149     
 C        18.187813039736845       -18.406867468179222       -126.39020253068820     
 C        21.970174002391321       -18.320791518955815       -126.25558947779167     
 C        17.697976403603381       -17.045351318264530       -125.89606187793323     
 C        22.222435394836470       -19.789729929030390       -126.59680063469449     
 H        19.368836859218789       -18.970347494800830       -127.38455337772126     
 H        18.929590949752804       -18.963037596403083       -126.44869267594999     
 H        21.448303465658032       -16.879560444136548       -126.67249936706624     
 H        21.138788902688585       -17.641888822639444       -128.32884414067516     
 H        17.853942277887906       -19.075786414657859       -125.59699526216036     
 H        17.709555622823160       -18.732496422960228       -127.31396422576083     
 H        22.876093376252825       -17.807427269812585       -126.57787375963642     
 H        21.631139565389272       -18.128965280112926       -125.23757259375206     
 H        16.647026085851312       -16.786413889772728       -126.02472694957933     
 H        18.205292998024998       -16.291625460985959       -126.49824726157578     
 H        17.999772829211775       -16.847131766228387       -124.86760286671856     
 H        22.703921504828394       -19.231969872218745       -125.79357292371310     
 H        21.816669961125516       -19.598030155824723       -125.60347009522384     
 H        21.197392181794566       -19.721706315810756       -126.23243931894878     
 C       -115.12810259949859        42.796918620797896       -117.84275319963207     
 C       -116.54588209864733        42.582528509229263       -117.31192446536743     
 C       -113.89055221174848        42.462919305316838       -117.00923390479792     
 C       -116.93209675537756        43.963490440117738       -116.78124246608394     
 C       -113.60159608651291        43.545040968702480       -115.96838895231765     
 C       -118.42865686197356        43.829261515368565       -116.49816763602699     
 H       -115.36700276375085        41.926972319278761       -118.45448856238818     
 H       -115.22460333717801        42.831925632121560       -118.92790855682183     
 H       -116.66171069326204        42.073474454738772       -116.35508189791823     
 H       -117.31977457741718        42.353943580916194       -118.04468590205342     
 H       -113.10276234124655        42.631285663093202       -117.74349536067035     
 H       -114.00688636442825        41.441376694614654       -116.64727105839141     
 H       -116.12738439084616        43.742012618268348       -116.08018219238464     
 H       -116.67780078212826        44.713269105358648       -117.53041904253998     
 H       -113.81755751701493        44.491734773913109       -116.46359737531598     
 H       -112.52029002510889        43.494367330520468       -115.84068061741475     
 H       -114.16479275773939        43.547894882019300       -115.03516799179668     
 H       -118.21283756519618        44.389824697837426       -115.58861231053403     
 H       -118.88590637565876        44.777117140117909       -116.78205597798193     
 H       -118.57787364262265        43.876280533588478       -117.57688147546308     
 C        100.59850969108106       -42.671447548269114       -31.723407361784503     
 C        100.77518088807011       -44.133843584369849       -31.313497504727245     
 C        101.11822026129973       -42.383341619377738       -33.132214238024865     
 C        102.18832411468615       -44.406010695929382       -30.796978142913268     
 C        101.82633122759466       -41.028230253925337       -33.141868045899557     
 C        102.37763895145345       -45.825234699979788       -30.260504360788804     
 H        99.580641817790138       -42.912441227144143       -32.029947817500933     
 H        99.845183980106171       -42.045671995634642       -31.244862306964691     
 H        100.62125652392737       -44.748584026841790       -32.200346680418633     
 H        100.22693136642054       -44.509514918640875       -30.449556833107010     
 H        100.40912765061427       -42.173525664807421       -33.933004440975758     
 H        101.75334986680767       -43.135632444877182       -33.599941670322735     
 H        102.81452534837592       -44.148781753758165       -31.651264502141071     
 H        102.33281723989305       -43.682507923700690       -29.994628165318556     
 H        102.76116217395757       -41.208606275050059       -32.611155809496765     
 H        101.37886979954470       -40.214168469701676       -32.571621001030266     
 H        102.10311529832131       -40.832167754185747       -34.177749358312646     
 H        101.88582588544514       -45.412714806926054       -31.141439767905162     
 H        102.92504346996961       -45.587653425580754       -31.172646568960932     
 H        103.19251590881473       -45.128804910385661       -30.458143119090991     
 C       -47.593479172679622        83.044515978353459       -92.593612233488201     
 C       -46.976447871314932        84.241466167450895       -91.869441272080081     
 C       -46.750322720414488        81.775334082251817       -92.466704741150181     
 C       -47.582128665176867        85.561275013647276       -92.348081305602136     
 C       -47.023678633553544        81.109770116412832       -93.815831226802999     
 C       -46.875766996542033        86.519051163193140       -91.388102673823269     
 H       -48.200992508023717        82.860777756912285       -91.707458850047743     
 H       -48.662481106673120        83.010935611116636       -92.803867353902817     
 H       -45.912204114298440        84.259575409706443       -92.104297162162410     
 H       -47.167103251638878        84.368978651604181       -90.803847031033698     
 H       -46.654915881172727        81.177139195727179       -91.560525731064189     
 H       -45.955735341936020        82.375156873341481       -92.910487957236484     
 H       -47.080189780747979        84.963454984887619       -93.108849640722994     
 H       -48.669447228387526        85.495356154545021       -92.309440624573057     
 H       -46.167883098220564        80.460266458383373       -93.999839074642011     
 H       -46.855246634581732        81.858422760427018       -94.589943566452718     
 H       -48.029340966103838        80.696272396016852       -93.891745146313824     
 H       -47.001947759854502        86.495091720040705       -92.470509377723857     
 H       -47.767248510416252        86.911841126734615       -91.877057386469531     
 H       -47.926872737007557        86.239781424689980       -91.315404016064491     
 C       -134.44316773455392        15.534579920668987        124.14188655104859     
 C       -133.49447406154641        16.569955377020083        123.53705687810259     
 C       -135.64635226624506        14.624414841060563        124.39045738615873     
 C       -133.11876832534588        17.682218768341148        124.51662634889728     
 C       -135.76043377586410        14.228358021665588        125.86285867174300     
 C       -132.87961274665892        19.013339640114225        123.80335028017022     
 H       -134.20544146429125        14.619181358077940        123.60000860157534     
 H       -134.72644903041726        14.541109848339952        124.48954871428738     
 H       -134.15540164802565        17.418642340831330        123.71313983175094     
 H       -133.08557544866414        16.642924250657394        122.52929827024035     
 H       -135.65888904004356        13.735913365692790        123.75918251929521     
 H       -136.52778168571351        15.030701376952733        123.89435914273182     
 H       -133.85225347382186        17.915367402215612        125.28846906218014     
 H       -132.25701475218426        17.261587534144496        125.03484461906244     
 H       -136.66748594734241        13.729587779497555        126.20430334782257     
 H       -135.76611642949186        15.154482455829809        126.43762929657171     
 H       -134.88713203487274        13.676168046653510        126.21003342870452     
 H       -132.73324387144274        18.826990536997016        124.86728170414145     
 H       -132.00376004562932        18.563416701561192        124.27084503559507     
 H       -132.13398565986873        18.313988998107522        123.42513222674036     
 C        104.97501875407508       -25.652473535733485       -111.83906466729276     
 C        105.35062051947949       -24.200540933052274       -111.54131307354335     
 C        104.90444255786250       -27.179510252410829       -111.80714616583415     
 C        104.83557492261851       -23.537193951668254       -112.81902188835321     
 C        104.77560142701539       -28.194093652684998       -112.94374708891404     
 C        104.69642861712670       -22.053135879221252       -112.47835950478465     
 H        104.19350263601720       -25.871235930698166       -111.11141393555123     
 H        104.28908437137981       -26.494621850307304       -111.93060853014714     
 H        106.21714579253353       -23.841346401975041       -112.09648265600347     
 H        105.22941309971060       -23.803789675605298       -110.53334624152912     
 H        104.76089046177869       -27.785677924036442       -110.91268903082170     
 H        105.77551975943966       -27.210379355243198       -112.46164722150148     
 H        105.54047553746263       -23.762313294146196       -113.61935702277808     
 H        103.92269709300540       -23.921992713927899       -113.27364702221179     
 H        103.73274683686000       -28.508161934543107       -112.89998294789130     
 H        105.27802975352623       -29.131874097865133       -112.70661078151339     
 H        104.93740935023322       -27.795331651328922       -113.94519956364064     
 H        104.72312770160165       -22.611524780511658       -113.41408857784225     
 H        103.80855259630577       -22.527537280055757       -112.89635404233779     
 H        104.04230035169533       -22.836053284293403       -112.09461935598941     
 C        60.271780256874557        135.44301812739224        15.982998229129377     
 C        59.624751206660491        136.68890115263790        15.377217827016702     
 C        61.753662271397182        135.62321020691289        16.313751029797370     
 C        59.753692743050038        136.34645294416643        13.892649139655976     
 C        62.386269397100584        134.59647369750300        15.373824700376824     
 C        58.865609591056682        135.15729890018170        13.525141407550336     
 H        59.857872773833172        136.03145579996345        16.801852131438530     
 H        59.772649323690807        134.59337129203058        16.448904436474560     
 H        60.333840401441840        137.39128688797581        14.939100499364665     
 H        58.744800428524954        137.12744901073782        15.847815729472238     
 H        61.921814126440900        135.33619358171705        17.351752194485105     
 H        62.054245287427420        136.58919106941141        15.908003732854661     
 H        59.229629947512791        137.21235785494432        13.488091595860238     
 H        60.806712036269658        136.24178932484773        13.631314192649155     
 H        63.442963245649402        134.86368734863646        15.364084965640265     
 H        62.121733333808216        134.78488097313959        14.333332800867758     
 H        62.331536152113557        133.56097152480262        15.709740655192409     
 H        58.374735293164385        136.10117210685502        13.762303219777330     
 H        58.986555257200621        135.67741103395483        12.574901709265642     
 H        59.821051073912813        135.03823796019023        13.014204970789539     
 C        87.674067037771920        100.54137465313272       -75.204659466430002     
 C        88.908390547445393        99.898423743531026       -74.571492378019869     
 C        87.771042112441563        100.68528562999525       -76.723779733902788     
 C        90.175511471932268        100.75283203760603       -74.524248321803256     
 C        86.292500258727884        100.67278966559117       -77.113136864123689     
 C        89.879994524966065        102.09918840473807       -73.862557104739921     
 H        87.501040549977532        99.466045296804666       -75.161897172718753     
 H        86.677761234284034        100.63688789784874       -74.772974383822771     
 H        89.736886808108494        99.606731639817568       -75.216945468447193     
 H        88.831257500974431        99.073927616168191       -73.862721200808295     
 H        88.629167562347945        100.29386283673611       -77.270139435474988     
 H        87.751691082484584        101.75707117107400       -76.526292234959158     
 H        90.913277375371024        100.21564294015886       -73.928237207570859     
 H        90.632813757102227        100.93820000903119       -75.496160533781904     
 H        85.548515958227014        101.33021944221588       -76.663277656006699     
 H        85.757477225872449        99.723502998375338       -77.139692282420867     
 H        86.191588718676442        100.96544694175491       -78.158253410990568     
 H        89.476374753002347        102.17689668074908       -74.872087911150572     
 H        88.832300336562596        101.87210483002353       -73.665402560164921     
 H        89.672479222909942        101.30559010694977       -73.144755511389931     
 C       -100.58367313485667        81.495670220625925       -113.40303536314372     
 C       -101.85507565838722        80.732636479041290       -113.02999904502362     
 C       -99.357204556968597        81.072578414581727       -112.59395616361411     
 C       -102.80433069341416        81.595024113480164       -112.19750679695443     
 C       -98.100355023405754        81.269097329317901       -113.44221950025850     
 C       -103.22984765636714        82.737432289863747       -113.12037180144982     
 H       -100.64821529496537        80.623480733632064       -114.05358882839151     
 H       -100.38957578184321        82.060401793160494       -114.31490403025818     
 H       -101.56276561561025        79.877163309658442       -112.42104871559532     
 H       -102.55653470565005        80.458960161646885       -113.81813385132828     
 H       -99.204121689917727        80.018216918379721       -112.36376611886647     
 H       -99.216742186269514        81.528544516250165       -111.61392286715187     
 H       -103.61645521560492        80.956733006433822       -111.84945770812267     
 H       -102.45492369990048        81.976089711918604       -111.23792155878041     
 H       -98.362869485403479        80.835267848191194       -114.40709152750742     
 H       -97.296436486442815        80.600897032669124       -113.13347465830958     
 H       -97.824411560843373        82.306105119387439       -113.63345250136484     
 H       -104.28903699451057        82.562277435867088       -112.93185477171187     
 H       -103.64020386745348        83.497807247595333       -112.45588877624105     
 H       -102.48889657086541        83.496332989842728       -112.86905285983525     
 C       -141.94586639167554        36.841566068299784       -134.41088942380892     
 C       -140.56590813713231        36.844043363931924       -135.06933456738008     
 C       -143.19823581411688        37.587983127708405       -134.87162082764274     
 C       -139.74266730708007        36.228411947621126       -133.93747177105877     
 C       -143.02688446089013        38.922141402385307       -134.14463980185286     
 C       -140.31588556722809        37.016307789941251       -132.75913315200148     
 H       -142.04745629142408        35.896941647225603       -134.94517791425957     
 H       -142.66560160060632        36.057617883553235       -134.17529122675364     
 H       -139.89448283648130        37.616598234537989       -134.69457189769889     
 H       -140.46774317859504        36.595524915577087       -136.12607589276439     
 H       -144.11458470283117        37.049397870376346       -135.11313827053735     
 H       -142.57782259438287        37.916436989697004       -135.70547064995762     
 H       -140.31019223492268        35.527658657733213       -134.54981168705444     
 H       -138.68156889157419        36.331844604965248       -134.16434595312032     
 H       -143.72116012086613        39.594821620724638       -134.64820960169419     
 H       -142.07324618694693        39.440190124115546       -134.24612686792182     
 H       -143.42419664901743        38.779150324296772       -133.13975342722711     
 H       -140.45685028603194        36.053886295712104       -132.26722486961714     
 H       -139.78412132838994        37.171384000334989       -131.82036898226104     
 H       -139.64532788437339        37.859871561683050       -132.92300061586496     
 C        20.964952566539495        33.930831245623772       -119.15668150048515     
 C        22.222292293052107        33.634330477353870       -119.97462104993153     
 C        20.351789105128159        35.166337817454377       -119.81652616871456     
 C        23.088081472986126        33.048693138217459       -118.85870040503686     
 C        21.234281510930913        36.401399263811236       -119.63302811845863     
 C        22.772284257825369        33.941816287420409       -117.65851537647747     
 H        20.332093179289924        33.266381027868434       -119.74497982314176     
 H        20.521355637066971        33.161631788268814       -118.52449957547377     
 H        23.089444094645636        34.284206011840830       -119.85710703877035     
 H        22.124974813075262        33.323955946111759       -121.01495606329411     
 H        19.525530512673996        35.368496717621682       -119.13496288081247     
 H        20.083786396653082        34.892215849220250       -120.83688480201344     
 H        22.552069503126894        32.141636177720066       -119.13805456891654     
 H        24.131018191355867        33.066318399630831       -119.17504264101579     
 H        21.037521628043656        36.753122257213079       -118.62027130367306     
 H        20.795461454747738        37.132104957504758       -120.31244417762937     
 H        22.315885720685742        36.298804153811112       -119.72081519884355     
 H        22.813865979829718        32.852609754779799       -117.65862214886499     
 H        23.746060992809504        33.543145911739579       -117.37404961238357     
 H        23.753726800675913        34.337828480401051       -117.91936946949365     
 C        116.41843081060685       -125.31429450806183       -19.204949389228535     
 C        116.53383087235530       -126.83533771241260       -19.309598308223396     
 C        117.15308912110824       -124.26552443361118       -20.040532660593708     
 C        117.67008800835158       -127.09980908170373       -18.321258539466442     
 C        117.80763548589857       -122.94596448665324       -19.630445125641632     
 C        117.81572553191118       -128.61974346832261       -18.241070505221849     
 H        115.52189947957162       -125.47877239120686       -19.802677262741163     
 H        115.58891201802190       -124.61416935254692       -19.304062288022465     
 H        117.05122594365639       -127.25941961716244       -20.170154453055272     
 H        115.70847108324773       -127.43939987469336       -18.932782565179288     
 H        117.17069240763766       -124.22612861838323       -21.129678251654756     
 H        118.02257993164652       -124.39468533658307       -19.396014844130303     
 H        118.59004248529112       -126.76345162066454       -18.799429393426696     
 H        117.52481954409650       -126.68748647276291       -17.322766072415899     
 H        117.30752578206391       -122.12107576633990       -20.137937737697534     
 H        118.85253188790469       -122.95760486935649       -19.940535480605181     
 H        117.63944474506607       -122.82549242678105       -18.560258988402200     
 H        118.90143165815259       -128.56203814415724       -18.163531803542298     
 H        118.14643887629138       -128.81719527331686       -17.221393372620380     
 H        116.98106807120836       -128.87565995937959       -17.588419245998278     
 C       -136.84357691112214        19.692742429485556       -124.18565173088312     
 C       -138.10494410119730        19.042408053730810       -124.75473780445925     
 C       -136.62597954752434        21.205849701566592       -124.21725400864288     
 C       -137.90095312610396        17.801356931777189       -125.62423236728191     
 C       -135.64376193482497        21.612480628753524       -125.31622670944796     
 C       -136.52249041429809        17.821273695208262       -126.28550749232517     
 H       -137.30241241643432        19.438333773140432       -123.23022186820582     
 H       -136.42582136282547        18.962716245384769       -123.49236815993522     
 H       -138.13762659105049        19.099784302676003       -125.84273590399432     
 H       -139.10785585440490        19.208158563101122       -124.36129819310962     
 H       -136.31304256305378        21.621566717687113       -123.25947020693918     
 H       -137.58571135598322        21.719956565757322       -124.16520566755985     
 H       -138.01981260216962        17.561326498038841       -124.56765405102277     
 H       -138.73939652520713        17.447214724622985       -126.22397897642938     
 H       -134.60947014983148        21.275318331085003       -125.24794823873749     
 H       -135.54560449234040        22.696804023808948       -125.26418901662213     
 H       -136.03112340276911        21.403223089007529       -126.31335377497365     
 H       -136.61449753822711        17.318990059634782       -125.32251956069865     
 H       -136.93713963943435        16.866535515111636       -126.60899008975605     
 H       -137.27675491327327        17.850578131524220       -127.07184475029274     
 C       -139.62498179100467        142.73632305067150        138.77730316876233     
 C       -138.60195815818130        141.64752280471828        138.45206846326460     
 C       -139.87088876794607        144.03952023053540        138.01635121949991     
 C       -137.75088609748764        141.67292183116234        139.72205749089818     
 C       -140.21831854529907        144.98539948669392        139.16632778653889     
 C       -136.87709424577383        140.44636543858613        139.45769382243569     
 H       -140.30692491914053        142.05558500814152        138.26774523643454     
 H       -140.71102091161694        142.74473711579162        138.86976001131069     
 H       -137.78045540617185        141.89069999414181        137.77820044750558     
 H       -138.95226516755514        140.61733693687097        138.38802099870281     
 H       -140.38567474090780        144.11569251424089        137.05859698651750     
 H       -138.80748667065617        144.21919700833723        138.17444062656438     
 H       -137.73986576303159        142.58316959759682        139.12253480972780     
 H       -138.40354770651930        141.66721960184324        140.59504109067532     
 H       -139.99796726574903        145.97846531544852        138.77470875826913     
 H       -139.60625483047372        144.94049309386568        140.06713933412982     
 H       -141.30114315246604        144.94338382415748        139.28391000766146     
 H       -136.11335574163076        141.16779958707761        139.16728685239497     
 H       -136.21991559408676        140.33986035318770        140.32075400392850     
 H       -137.40199776709059        139.96643672948892        140.28367488228861     
 C       -26.646025559410617        20.487760997772018        139.91758307886064     
 C       -25.413024835370685        19.708333226897096        140.37588706639491     
 C       -26.508776452224033        22.001540370379587        140.08334075465379     
 C       -26.078701755806687        18.391423673022622        140.77646722630422     
 C       -27.854049454367267        22.345083950154894        140.72369963607099     
 C       -27.108651819847712        18.818129119592211        141.82287357364521     
 H       -26.055745310201139        20.337268147496399        139.01369086285368     
 H       -27.444003017170637        20.144238427709485        139.25930938456236     
 H       -25.323517528080909        19.611537059521780        141.45788474162777     
 H       -24.477383389514483        19.798210818710920        139.82398396201927     
 H       -26.433973394208930        22.459974179177131        139.09726623868423     
 H       -25.777260635494869        22.169240032333384        140.87382255510937     
 H       -26.246955230574276        18.335078334502217        139.70100644430619     
 H       -25.314315198730977        17.707435238520677        141.14521245596987     
 H       -28.092738927373901        21.927111487662970        141.70167009572000     
 H       -28.625044535952878        21.914163589313727        140.08497100939826     
 H       -28.046451973503828        23.417959356655722        140.72813185571539     
 H       -27.741019346175108        18.371045539296890        141.05584846505809     
 H       -27.156809194603078        17.898610106758618        142.40619650191169     
 H       -26.260516302177322        18.750197158272044        142.50416012992275     
 C       -7.9227152936742051        136.96724851370686        143.66228981419908     
 C       -8.3592967637413818        136.23886907905009        142.39079424541555     
 C       -6.9631385555787961        138.12894142767445        143.40243782297389     
 C       -8.0018723765127131        134.75523116568675        142.29641602183506     
 C       -6.4554907251031830        139.22861713430794        144.33563026969367     
 C       -6.7663920970189277        134.45482031822365        143.14564081696486     
 H       -8.8687728041969169        137.43083046609780        143.38270626573123     
 H       -8.4059833794093066        136.94909782969435        144.63913294772109     
 H       -7.5990745367205532        135.94910608442763        141.66539808773626     
 H       -9.1818693349855476        136.59816245203658        141.77242329444363     
 H       -6.6162936478969456        138.45306469589045        142.42124329456738     
 H       -6.3304602418298686        137.75619713485898        144.20796862257941     
 H       -8.8481319594762127        134.18707403532881        142.68260527293165     
 H       -7.8203400785164767        134.39705829655486        141.28307586084446     
 H       -7.0588037145265634        140.09736991117444        144.07222575207899     
 H       -5.4640406369379262        139.57738211008513        144.04668435383320     
 H       -6.6174411178222652        139.04958505968577        145.39855999383471     
 H       -7.5905878334251726        134.54407804210501        143.85333735014376     
 H       -7.0101535275399183        133.40172948003894        143.28592635116561     
 H       -6.7430285952322810        133.81950293349612        142.26024489279393     
 C        27.796808145476401       -119.34011636986163       -104.43396449114044     
 C        26.826359381032987       -118.30791928347932       -103.85895199522919     
 C        29.202525026446036       -119.62606582301980       -104.96314675315693     
 C        25.488159793399618       -119.04754794433869       -103.86244348159246     
 C        29.163131603238579       -120.31951536361893       -106.32528369556589     
 C        24.556045605659975       -118.09859727729371       -103.10845626946423     
 H        27.961080884946767       -120.17239961051915       -103.74955300180589     
 H        28.294781596147846       -120.26543800266573       -104.72362350728675     
 H        26.494058212729009       -117.50017266882294       -104.51104197384088     
 H        26.968341739038991       -118.02128500563161       -102.81694346246246     
 H        29.822710553409546       -120.19347775133950       -104.26923492286402     
 H        29.828340972983703       -118.74064194715174       -104.85143726550018     
 H        25.671086699082409       -119.04273064265828       -104.93697335603892     
 H        25.621855991678743       -120.02126110354961       -103.39116005437154     
 H        30.135615220335712       -120.09532995416590       -106.76359454538867     
 H        28.504284528166508       -119.80218800010117       -107.02270247174347     
 H        29.080700332220943       -121.40591850235417       -106.29313860289881     
 H        24.317204599497877       -118.62167089978693       -104.03444162643311     
 H        24.207528665985659       -119.12696945115947       -103.20377979269720     
 H        24.696008490328801       -118.97390522183034       -102.47414848318212     
 C       -134.18878704067336       -66.916759395121375       -63.938761117860196     
 C       -135.25137310555243       -67.703317839542478       -64.706926190000928     
 C       -132.86075006035111       -66.463282733743995       -63.331704533609148     
 C       -136.66387109516239       -67.318965603318958       -64.265379245960503     
 C       -132.49487149871939       -66.107761323330365       -61.890323762599238     
 C       -137.62617086059092       -67.958167497650436       -65.266998455133560     
 H       -133.75677222215327       -66.260760931916508       -64.694492050034398     
 H       -133.59772204721028       -66.032957926972685       -63.698683589784039     
 H       -135.10914640112676       -68.760508768157962       -64.482830396292627     
 H       -135.37485990902070       -67.519704531985454       -65.774229884060560     
 H       -131.98229518578717       -66.152397712593881       -63.897184438237154     
 H       -132.90889605306410       -67.312478998820822       -62.650053822179153     
 H       -136.21333853015338       -67.898229135553876       -63.459417663404203     
 H       -136.69335550438433       -66.245097332161535       -64.080886274130791     
 H       -132.11865287896134       -65.088792408854431       -61.981218172190474     
 H       -131.60202058149656       -66.604422649810317       -61.510528041007021     
 H       -133.36504818366197       -66.002023355912669       -61.242471901243476     
 H       -138.32405831621921       -68.254500166033537       -64.483902039326111     
 H       -138.50568110827624       -67.314320368795421       -65.262245918671354     
 H       -137.59796768432651       -67.230275834867058       -66.077848812783017     
 C       -26.806789053383191       -145.19938972149700        82.757911871261697     
 C       -26.204194052937858       -145.19761512277714        84.163158147443042     
 C       -27.018362240550850       -145.41493953646253        81.259040299702619     
 C       -27.334740602695444       -144.50428103705102        84.924074269234097     
 C       -25.895277205198127       -144.72297287390612        80.485927572837284     
 C       -27.824573027974683       -143.44083481313316        83.940719175544288     
 H       -27.305364898234277       -146.16644869268387        82.692192096330857     
 H       -27.564510406036295       -145.43388492623816        82.010268647112426     
 H       -25.832963106352281       -144.22557295044228        84.487845111742203     
 H       -25.647376341673212       -146.06545151248142        84.516589852954397     
 H       -27.852691809866833       -144.92310677015612        80.758945596801254     
 H       -27.131949053951249       -146.44035302058612        80.907294264845717     
 H       -27.701200860994394       -145.52861557008958        84.991495082580613     
 H       -26.939736458833309       -144.10891932249123        85.859895231044490     
 H       -24.861200560421526       -144.95179708828235        80.743657727338714     
 H       -25.967998124830586       -143.65904916927275        80.711489201971418     
 H       -26.028700451772227       -144.80111783320430        79.406950459042747     
 H       -28.401809640405087       -144.36215377257983        84.018624156841540     
 H       -28.400522718244378       -143.22763645321712        84.841234792781592     
 H       -27.302531186673637       -142.93659432118082        84.753931208089739     
 C        31.084243744517252        48.498882508924176        114.92446439958054     
 C        32.214772476555716        49.520646104711886        115.04994309154283     
 C        31.389174630004121        47.305959961474208        115.83099292864706     
 C        32.358451739594159        49.885205318837393        113.57200745787458     
 C        30.026233053546378        46.613935156348298        115.86750221860622     
 C        31.183765316195842        50.743949439686730        113.10242115283714     
 H        30.500599981773771        48.982445316359716        115.70780786165474     
 H        30.074416665230988        48.796952791221671        114.64250100143191     
 H        33.218538650594930        49.232845388930038        114.73733434389685     
 H        32.265694749437749        50.159109613122361        115.93191319622311     
 H        32.018563801340918        47.342282429223168        116.72017793714696     
 H        31.639555908803224        46.789531888753096        114.90432616681439     
 H        33.187564892210553        50.586569613914961        113.66559933566569     
 H        32.540369714084505        48.982726512122092        112.98845119473611     
 H        29.470347085404487        47.105520932700848        116.66589693702765     
 H        30.169464669131404        45.633166651457010        116.32101947771019     
 H        29.568714560471658        46.520128500309887        114.88262801905915     
 H        31.999998134173307        50.373195231299832        112.48241693433853     
 H        30.961847711082726        49.796583231269459        112.61114748731825     
 H        30.631201805418595        49.897784111724029        113.51080551288462     
 C       -84.811224269389996        146.99412130822927        61.124337328593271     
 C       -83.875273278450365        148.19798315746672        61.236379008938066     
 C       -84.204588734854255        145.69634381789774        61.658760232672648     
 C       -84.093237324868923        149.32876481189234        60.230563158753107     
 C       -85.462832381501940        144.94096944578465        62.087798249407058     
 C       -85.070361648856974        150.30095548101306        60.892314074620437     
 H       -85.008648653157096        147.47797571915987        62.080898106981998     
 H       -85.892788931939535        147.00208250541513        60.989227927698337     
 H       -83.241536958013299        148.30478012763788        60.355996860664334     
 H       -83.289999974114338        148.43557706753217        62.124694401683676     
 H       -83.210065553706883        145.68461216009013        62.104726624719710     
 H       -84.294892880551046        145.34467100086886        60.631009576130005     
 H       -83.156859020618086        149.88343699668155        60.170277494539405     
 H       -84.477561340608545        149.02022150888450        59.258351189753341     
 H       -85.840439819084793        145.47424962674111        62.960222892089391     
 H       -85.141720501836616        144.01464404601711        62.564147328917315     
 H       -86.139647589781717        144.73370955174488        61.258904696946772     
 H       -84.456865363843747        150.67859433026626        60.074321944043007     
 H       -85.636922341537186        149.92349251857732        60.041061669760467     
 H       -85.481408061976651        149.29512004100584        60.978545632399182     
 C       -9.9406786926576025       -108.07982737195415        36.936261415169447     
 C       -9.8620400231036260       -109.53509254208241        37.398711676562350     
 C       -8.7677412304646527       -107.11248089198388        37.098432322273041     
 C       -11.129732778724390       -110.37386763554792        37.233628961802992     
 C       -8.4123374318151036       -105.84070031447348        36.327651233914160     
 C       -12.250888999516071       -109.39615298111727        37.587074469081301     
 H       -9.8724589811060781       -108.52879333663523        35.945365030142526     
 H       -10.747766489886926       -108.04907197497894        36.204302795803493     
 H       -10.526334773938888       -109.73172745616706        38.240226498016163     
 H       -8.9290298352488513       -110.07797223183172        37.549951927149941     
 H       -7.8823442047957490       -107.29144869567669        37.708467285746330     
 H       -9.4844718688278142       -106.30390022372967        37.241940228546198     
 H       -10.705910389511565       -110.52747579690073        36.241218247701312     
 H       -11.064549760616012       -111.24423952528470        37.886548563541375     
 H       -7.3305308687085535       -105.88457751142640        36.201678103199491     
 H       -8.5528952294178282       -104.87206096002049        36.807319142936848     
 H       -8.8516765899732022       -105.88579590711485        35.331133548554632     
 H       -12.433146648768668       -109.36083676945104        36.513000516015261     
 H       -13.180040176738117       -109.96556278141705        37.563610507955943     
 H       -12.376977859692190       -109.96428617858916        38.508717704498949     
 C       -3.7562029635811758       -56.545753719393197        56.939041250369328     
 C       -3.8044160186465446       -55.452530542766567        58.006926793236218     
 C       -2.3548452437007290       -57.126609315185476        56.747614072279596     
 C       -4.9145426731562605       -55.710913533248835        59.026092110583853     
 C       -1.9689682184405481       -57.249793545101284        55.273244523327776     
 C       -4.6830476369476521       -54.738831423564029        60.183376589191880     
 H       -4.0673227042827111       -57.260625977764761        57.700790660246561     
 H       -4.6547772868554720       -57.099994414810666        56.667966701584895     
 H       -4.0248514633938202       -54.509223575101146        57.507246704073580     
 H       -2.9758735819831572       -55.364600922012905        58.709696892850488     
 H       -1.8772500921147190       -57.851715374522527        57.406570896299669     
 H       -2.0539764273616896       -56.092080271865171        56.582303372789141     
 H       -5.3878558030624184       -55.389294499088898        58.098387534984177     
 H       -4.9777551739103227       -56.783226626013381        59.211156598425596     
 H       -2.1223450517012292       -58.298278619036772        55.017794903547603     
 H      -0.89241654014335925       -57.079119246417868        55.275857552108953     
 H       -2.5146768468270944       -56.666987105981505        54.531194123030772     
 H       -5.5170165459944034       -54.163063546763397        59.782019947257837     
 H       -5.3370552655921983       -54.667676491703190        61.052462888797315     
 H       -4.3751211217586761       -55.532663229789861        60.863900147200518     
 C       -84.849491631449155       -24.461886183024664        112.59248478026255     
 C       -83.837659787267881       -25.608016817945245        112.57194592033719     
 C       -84.095003941622124       -23.132087066217970        112.57753305301800     
 C       -84.256166428794273       -26.901446654341761        113.27175477007070     
 C       -83.578744175706646       -22.759843632665337        113.96776750527685     
 C       -84.939790677320275       -27.757389734880945        112.20504940789033     
 H       -84.935102158763797       -24.459145720909650        111.50585543175475     
 H       -85.858899074030603       -24.584757369659620        112.19992990590086     
 H       -83.323108665969428       -25.869634094558275        113.49655047109587     
 H       -83.056925602582936       -25.676196431541161        111.81438032990566     
 H       -84.921314238200281       -22.434164096893209        112.44257076642791     
 H       -83.363730333468126       -23.180870464481249        111.77071266847142     
 H       -83.340626627809769       -27.443162439535065        113.50930642459505     
 H       -84.919321166903401       -26.774915438780436        114.12750920684374     
 H       -83.176540007667896       -23.691952468863136        114.36463626113637     
 H       -84.309392785469882       -22.471698934697223        114.72356195585391     
 H       -82.720927434122260       -22.105339324655411        113.81325353455611     
 H       -84.643774465763244       -28.507756452386563        112.93814158308257     
 H       -85.953735805725415       -27.758758059419968        112.60506613383755     
 H       -85.450173654756341       -26.825417581366629        111.96207387893094     
 C       -69.065485220212324       -48.567102722913432       -99.764875725749505     
 C       -69.395174005026746       -49.531005468838089       -100.90506771908973     
 C       -69.025947609513139       -47.100732689415864       -100.19619534713227     
 C       -68.020311397356821       -49.877331208402616       -101.47747689278897     
 C       -68.954241261352621       -46.142743694221117       -99.006675931593250     
 C       -68.148529764928739       -50.788060817775651       -102.69894020735410     
 H       -70.142590519057322       -48.721495070257781       -99.700788387205975     
 H       -69.138085068551064       -48.753716794799317       -98.693426013351186     
 H       -69.784976051829759       -49.111263100457769       -101.83241377263862     
 H       -69.819043873317298       -50.496845120511530       -100.63013487554335     
 H       -69.508305057945435       -46.691155878372300       -101.08370768451078     
 H       -67.955184937543947       -47.174367179225662       -100.00607622027098     
 H       -67.774599340474154       -48.899630466942078       -101.89199679934548     
 H       -67.376001800957482       -50.250802380191573       -100.68155953915415     
 H       -68.123288619921084       -45.439839291233511       -98.947153111735858     
 H       -68.812215612496516       -46.756590501866334       -98.117226191514703     
 H       -69.893221543758699       -45.612689374887488       -98.847118872465074     
 H       -67.303727265672762       -50.133175588399745       -102.91232722469334     
 H       -67.325198748651417       -51.440738291226289       -102.40870214980139     
 H       -68.287090384250831       -51.389328056654350       -101.80039769390245     
 C        86.903613006328584        19.311411380437086        71.357255729359679     
 C        85.949802167463247        19.241139446247054        70.164298169792616     
 C        86.514140180287200        18.381670918783822        72.506922853955928     
 C        86.496056009850335        20.424522615293334        69.364890953363414     
 C        87.345649481044561        18.965942071898763        73.649315362057749     
 C        85.695106631441249        20.439108553517084        68.062543729668320     
 H        87.359254361903950        18.594710600968444        70.674005438365157     
 H        87.922330256807541        19.698790524121058        71.373148808324004     
 H        85.152440674730300        19.980226816449115        70.086423210625412     
 H        85.596289073924041        18.270577790541900        69.816248537193886     
 H        86.236472540503073        17.344450280937867        72.319375392261520     
 H        85.705142779774647        19.091697040747430        72.678638117580689     
 H        86.392708067894645        21.318661162741780        69.979655468443454     
 H        87.566963738242336        20.468744203063451        69.166645751864849     
 H        86.846369632359313        18.615850116451835        74.552783757848488     
 H        87.346498028236979        20.048244277966170        73.778625949747962     
 H        88.308447299194881        18.455651969497858        73.622400800368169     
 H        86.489577168118728        21.067622588447779        68.464895061138250     
 H        86.748314131648300        20.175079798005939        67.966926062456977     
 H        86.265221533728209        19.583389294278138        68.424225236901577     
 C       -63.056775768315454        143.13963559748282       -1.4594620960085722     
 C       -63.617581265457090        143.16072152892249       -3.7177462796555094E-002
 C       -61.555231920487003        142.85768895705044       -1.5203970665488942     
 C       -64.916532337345757        143.93928148667746       0.17356263259018467     
 C       -61.331673305064662        142.36361536500962       -2.9499963026873619     
 C       -65.558122253134457        143.62272281895989        1.5248560684741232     
 H       -63.436722498784775        142.13191724174828       -1.2914019583584173     
 H       -63.609308042225216        143.01824716535688       -2.3911664279604072     
 H       -63.562391261420160        144.08721001584161       0.53437581312053473     
 H       -63.368119868553180        142.39169206452448       0.69389207967074218     
 H       -60.899153132237210        142.53017134208005      -0.71392768550689889     
 H       -61.473963657338736        143.90106201759190       -1.8251398193258601     
 H       -64.837030758300855        145.02627241785106       0.15839114190564604     
 H       -65.502496823454365        143.66614299070577      -0.70401416338669764     
 H       -60.246639107209283        142.39478480640099       -3.0491383424255281     
 H       -61.611780255610739        143.07445953862037       -3.7273898157014180     
 H       -61.569835091064007        141.30782085501616       -3.0791354720100337     
 H       -65.336667498971579        144.61452269760727        1.9190523894326461     
 H       -66.456342089904226        144.23915768697881        1.5610384183934827     
 H       -66.441967890883731        143.06700656369978        1.2116527415501188     
 C       -109.95596368022515        102.23878192166674      -0.60934925746164925     
 C       -109.11504532923985        101.06058073502804      -0.11686650238775753     
 C       -110.00124052253278        103.53391828908292       -1.4207756099045297     
 C       -109.64795112270319        100.81807372431943        1.2955933253774023     
 C       -108.59980375409162        104.14254709954342       -1.4789744161311269     
 C       -108.51293747707638        100.14238186075369        2.0656747795481438     
 H       -110.80188347008213        101.91254397633502       -1.2144017606762549     
 H       -110.77850548351941        102.89507640610381      -0.89360719882408357     
 H       -108.09055892414426        101.26003092782749       0.19737419989795657     
 H       -109.25745683298520        100.10515535022509      -0.62182319252829710     
 H       -110.51262044913699        104.40538268597432       -1.0119475453099691     
 H       -110.42583456488553        103.48709027171135       -2.4235852056750362     
 H       -109.75186908671344        101.79550266196676        1.7666916709123655     
 H       -110.55063803209414        100.21004474521476        1.3552350536786029     
 H       -108.67961593535892        104.99568050274905       -2.1526904510269347     
 H       -107.98232501599020        103.48394046392417       -2.0897586141067652     
 H       -108.15485711835940        104.28431774115366      -0.49407666257561045     
 H       -109.47693508787086        100.44687779699234        2.4732170981715242     
 H       -109.26079560064463        99.349495333977444        2.0538786826386772     
 H       -108.67220238602982        99.391470651648575        1.2918097903992645     
 C       -119.38637645460810       -100.30422465549191        130.03582920370067     
 C       -118.58040817693222       -100.97317010968403        131.14972689961758     
 C       -118.84899360685804       -100.59381906086878        128.63397480494220     
 C       -118.71402689684048       -100.26092655665629        132.49609091295841     
 C       -118.61461169784259       -99.174575811854453        128.11565555678061     
 C       -117.40680320498493       -100.20404634767269        133.28714831819136     
 H       -119.90936309723973       -101.23852614574990        130.23995097447363     
 H       -120.40162498637520       -99.911586352805571        130.09244704132865     
 H       -117.98992326488626       -100.08759736593481        131.38464919883239     
 H       -117.92018596618182       -101.83976763767892        131.11486494612515     
 H       -119.62882303712716       -101.08303329239183        128.05033494944891     
 H       -117.84917021427982       -101.01011430501113        128.75706614901478     
 H       -119.12805494173803       -99.291279130648363        132.21956860606895     
 H       -119.45533359413496       -100.84295425386122        133.04363834495211     
 H       -117.98895660216849       -99.286616057009013        127.23015989169883     
 H       -117.90024114998513       -98.695654524052330        128.78528915398795     
 H       -119.53111602483933       -98.588589742140130        128.04680673866656     
 H       -117.89188857324591       -99.243049677170958        133.45825507494425     
 H       -117.87840599021084       -100.39903148755137        134.25030541203691     
 H       -117.85627210968974       -101.18704437257080        133.42783436312527     
 C        148.79171551373025       -53.717103930498183       -146.40684425665432     
 C        149.52468366790640       -54.526887049056384       -147.47682088530644     
 C        147.30708368483266       -53.933498483404939       -146.70160286252326     
 C        150.99934162677286       -54.759350374967134       -147.14638845765728     
 C        146.60393092838615       -52.889852201403855       -145.83314458257175     
 C        151.84132114955833       -54.959694411008563       -148.40685412971840     
 H        148.79580585335927       -54.529088451959403       -145.67968236383078     
 H        149.30415325506320       -53.414011381935033       -145.49380400803065     
 H        150.27782410015487       -53.763990082787167       -147.67396983488675     
 H        149.16487026544425       -54.922765512167906       -148.42651269817731     
 H        146.80235210175729       -54.862737183635531       -146.96591611248527     
 H        147.46574399959619       -53.215870908159758       -147.50654856702496     
 H        151.50581309444681       -53.960030741761145       -146.60539424691422     
 H        150.95915426350857       -55.608604344101188       -146.46429409355275     
 H        145.81984441610601       -52.516502871704660       -146.49186949322058     
 H        147.16966758234912       -51.971620915965964       -145.67536827958952     
 H        146.05193996442409       -53.327994935190475       -145.00161771636095     
 H        152.16401847178830       -55.168918076354686       -147.38695618137601     
 H        151.63215640547685       -55.860503746096377       -147.82988565912987     
 H        151.02384478642909       -55.679043374550929       -148.45553104799259     
 C        63.813077526823506       -59.985783288590355       -29.270173418996240     
 C        62.672795825584821       -59.990885456048289       -30.288786475871355     
 C        63.687558865071750       -59.288333203018695       -27.915312007748533     
 C        63.073666682602649       -59.396652174750166       -31.639353122055272     
 C        65.024505476220028       -59.248430972358193       -27.174486324413536     
 C        63.492607036555988       -60.589350475401069       -32.499469791862616     
 H        63.525513303148827       -61.029059566778464       -29.139860656031043     
 H        64.452440302617973       -60.825308706752217       -29.543142828878629     
 H        62.687481730111266       -58.913450985165490       -30.453161925444022     
 H        61.638661788534378       -60.318679884080218       -30.182873252302233     
 H        63.133468473332080       -60.040136244539148       -27.353283529732398     
 H        63.182154839218818       -58.337333123543566       -28.083435905864501     
 H        62.224017371643797       -58.829733887398255       -32.019878610971482     
 H        63.831960656903135       -58.613900616503344       -31.659109422281521     
 H        65.409500906729789       -60.262615581831653       -27.068147342905036     
 H        64.865297546213426       -58.834895883584096       -26.178624086310357     
 H        65.721579355960358       -58.695215633674330       -27.803883511329460     
 H        62.463077526672535       -60.241443791988573       -32.583908256857150     
 H        63.633938396830324       -59.740982274610246       -33.169094171606481     
 H        64.371459515303229       -59.967061673828745       -32.330724595001499     
 C        8.3662586099227276       -44.314648129474641        137.05894677493987     
 C        7.3004721574995406       -44.743252125531477        136.04986856341884     
 C        8.8068258178754029       -42.885612538867825        136.74020122326664     
 C        7.5619406098173059       -46.248414189501354        135.98692115439610     
 C        9.9565538688420734       -42.492779798112871        137.66845172732087     
 C        7.5066970445255699       -46.933596224659880        137.35268640772108     
 H        7.6170036663206915       -43.957363431474519        137.76539188027616     
 H        8.4152284355369069       -44.750322973228371        138.05688936837953     
 H        7.4866823836732594       -44.566631841744972        134.99051450467601     
 H        6.2541542008692073       -44.667893001995999        136.34590859982922     
 H        8.1450136697574429       -42.053855588426778        136.98162423976700     
 H        9.0707212916425846       -42.656855482088403        135.70766577930331     
 H        6.8208014238628429       -46.595291000025945        135.26685929407375     
 H        8.5636355281008925       -46.336990045409806        135.56637196626727     
 H        10.498830325538281       -41.550875562830853        137.58567184995400     
 H        10.769796372879355       -43.198912440375061        137.83612202461481     
 H        9.5829257267787717       -42.403204556249413        138.68849010935284     
 H        6.6903075012941953       -46.384550636208942        136.88347749787619     
 H        6.8117767993522413       -47.314403461942788        136.60424023220324     
 H        7.6039936106147072       -47.722799073519539        136.60717166753497     
 C        61.322660070950249        70.269497915308563        136.78778268523075     
 C        60.027982148682490        70.053303067036978        137.57194457232632     
 C        62.357649512967384        69.679000351378164        135.82968541065858     
 C        59.907140140942246        71.034002653166937        138.73876350160094     
 C        63.460616065548415        69.161415697347493        136.75348844954124     
 C        58.484621041652041        71.157252826237695        139.28565450534131     
 H        61.237978589068717        71.092235895660181        136.07783108500797     
 H        62.177792630639949        70.708735924703674        136.27405288873763     
 H        60.161731970314342        69.057308195794675        137.99408815195684     
 H        59.149537475076919        70.287199851773963        136.97050693542238     
 H        62.592097281465527        69.996834490485085        134.81375444305797     
 H        61.782030728264857        68.759389598364976        135.93494270052003     
 H        60.643565939790918        70.659689195437281        139.44986575827500     
 H        60.232863016491045        71.990506801634481        138.32997935926667     
 H        64.082356009205526        68.297307205215589        136.51927527530586     
 H        63.235725734072240        68.989704163628588        137.80612300046727     
 H        64.232891225921378        69.923693399159845        136.85656025420354     
 H        58.720168987444879        70.567294588366792        140.17141202836174     
 H        58.575999512784392        71.792828994685962        140.16644556608736     
 H        58.261966140051861        72.199335482017986        139.05633262536810     
 C        58.691106290232035        96.031269406642934       -136.73681197449355     
 C        59.559817416379524        97.150302835725284       -137.31209114989355     
 C        58.162810172385882        95.279200598602557       -137.95875167604783     
 C        60.240286203182670        97.958313090333974       -136.20668505501203     
 C        57.186215310071631        94.304848580107844       -137.29940218045337     
 C        61.251806596335619        97.025378678784364       -135.54012607188878     
 H        59.522908424573934        95.334812522105480       -136.63120406119083     
 H        58.804126631850039        95.720827514351811       -135.69808569984650     
 H        58.830782323880840        97.802631464832118       -137.79279394139752     
 H        60.405401806841709        96.754404208853870       -137.87454228806584     
 H        58.767831316837707        94.969116906553040       -138.81074788449456     
 H        57.394526851289413        96.052069198679234       -137.98144277037827     
 H        60.457810637913880        98.449753009955074       -137.15498343479152     
 H        59.473058466276647        98.454523562237469       -135.61234780336650     
 H        57.813710864989972        93.438277341517448       -137.09106709780619     
 H        56.462990424046758        93.853995603317372       -137.97894421481138     
 H        56.861727586444253        94.629007243344120       -136.31060043654006     
 H        61.428925843254092        98.066533208190407       -135.80980359012329     
 H        60.967476860823844        97.904796041783214       -134.96230111575929     
 H        60.452316374190289        97.191883200309277       -134.81819005307446     
 C        6.1403834724033413       -114.86238944349807       -19.927049808052818     
 C        7.1214868317472124       -115.18094865861738       -21.055676041700071     
 C        6.7678928055283913       -114.92977802317320       -18.534379048130667     
 C        6.7787439024356102       -116.62629150482108       -21.418101531147634     
 C        5.6450935448927773       -115.47495965864776       -17.651237041057399     
 C        7.3417684879998575       -116.97252045504236       -22.796858138732272     
 H        6.5861467904508055       -113.92236041928328       -20.252227448344904     
 H        5.1856557577296813       -114.34184408460219       -20.002066528956291     
 H        8.1574497413625728       -115.38950261756024       -20.788494244427991     
 H        6.9945122869056489       -114.63567195945198       -21.990903705915670     
 H        7.5390920346541597       -114.28541797521972       -18.112298596935457     
 H        7.0756218182883286       -115.93224122860599       -18.831818798852954     
 H        7.2402827723141812       -117.27182997720951       -20.670865358538123     
 H        5.7127037464720152       -116.85351744579575       -21.412922675526385     
 H        6.1638718345508829       -115.97198621230602       -16.831521479029682     
 H        5.0172240396752255       -116.26895080541979       -18.055536439350885     
 H        5.1505367236895427       -114.60895087877114       -17.211302508502932     
 H        7.4785395109518191       -117.97345613388791       -22.387564360584587     
 H        6.5443375796690386       -117.47835582014405       -23.341224298798831     
 H        6.6347862303152576       -116.24917545767455       -23.203119245136790     
 C       -14.754889516149390        63.187302113550771       -16.889739298525118     
 C       -14.774011196401519        62.374285488508512       -15.594950017677625     
 C       -14.635403065779744        62.328498591659212       -18.149112365585768     
 C       -14.658363152361218        63.241950739926409       -14.341305952337315     
 C       -13.123658962207806        62.357820630120983       -18.376292873939640     
 C       -16.021777001184486        63.371749562719515       -13.661529597302131     
 H       -15.811266249231613        63.048465319516076       -16.659755516770627     
 H       -15.087983261386997        64.214866864735498       -17.035544748510826     
 H       -13.808245871668158        62.735640914522563       -15.241651847997090     
 H       -14.825190634506995        61.295990709013331       -15.444082404324677     
 H       -15.148493188757593        62.830380787046543       -18.969449371479431     
 H       -14.849166075961246        61.301165887303242       -17.854166713595337     
 H       -13.965099861189856        62.747402201404320       -13.660932748847735     
 H       -14.263573756760271        64.242419095899166       -14.518236624182808     
 H       -12.930357893814440        61.539411351034879       -19.069791872032766     
 H       -12.457108368899117        62.123492053049567       -17.546292581938182     
 H       -12.851639433689638        63.280844884479741       -18.888280814350491     
 H       -15.603047388959878        62.371109266854262       -13.768695073575943     
 H       -15.327191372457639        63.366385946532645       -12.821516499329164     
 H       -15.461704219782550        64.288456748727384       -13.476958771055553     
 C        108.26633250645020       -123.95039268860913       -140.30992970973276     
 C        108.78368192806283       -122.90517570908257       -139.32113649293623     
 C        107.79158170477106       -125.17840266494787       -139.53246968813281     
 C        109.60436207390171       -122.01587540761987       -140.25573268503123     
 C        107.48755323375980       -126.14775074441557       -140.67517355564334     
 C        110.37590674743510       -120.96013149580801       -139.46329050454460     
 H        107.26354177794418       -123.52320801453307       -140.30502849901265     
 H        107.87118745942891       -123.66673572096649       -141.28537788870912     
 H        109.62156022463887       -123.16969931261153       -138.67608826386717     
 H        108.06207119429618       -122.22301114359553       -138.87165966270592     
 H        107.29281570992374       -125.07336578709416       -138.56898655133062     
 H        108.84496281655630       -125.45833720612352       -139.52129355330385     
 H        109.92515366355615       -123.05742439590728       -140.27492519698319     
 H        109.15587348740607       -121.70551200583682       -141.19946598992090     
 H        106.90157601893326       -126.94410977174596       -140.21632402754210     
 H        108.30729719642191       -126.69733850722943       -141.13785394045112     
 H        106.84326500525600       -125.65748183277900       -141.40498797659799     
 H        111.27411405631835       -121.34944294037376       -139.94262355678660     
 H        110.79435804671273       -120.05727891573521       -139.90810024539437     
 H        109.55982617844052       -120.23967521598661       -139.51856473028440     
 C       -48.907221707047455        57.359326502244876        47.846500808876243     
 C       -48.689814957979280        58.613289421134645        48.693939481293931     
 C       -49.253628567552298        57.289930375893263        46.358876067794043     
 C       -48.890776208196243        58.016837192941175        50.087388510924377     
 C       -50.186456325891321        56.082955141413905        46.254548212093546     
 C       -48.429371887576885        58.938718049074502        51.216584110892875     
 H       -47.817654540281929        57.358048077954450        47.815812585019451     
 H       -48.283882236151804        56.499266193095018        47.601870074927540     
 H       -49.605846869036128        59.038796786335368        49.103730916338989     
 H       -47.911322634056106        59.325528562925996        48.420507427441557     
 H       -48.637213932184324        57.586510793657169        45.510245948031233     
 H       -50.076543245764277        57.954221822573842        46.622747865603444     
 H       -49.952777340109762        57.771575149876810        50.097391877391075     
 H       -48.295016469939632        57.104058055489467        50.085236019181743     
 H       -49.598992366854517        55.164815243106176        46.252289730570745     
 H       -50.737761251275607        56.161813698887350        45.317561427057520     
 H       -50.840768808116714        56.053840752151736        47.125827468552387     
 H       -48.828172238810680        57.930580255739500        51.329351124969428     
 H       -47.660207709360030        58.166992950292681        51.247027673803480     
 H       -47.507868231438870        58.896587731715520        50.635932726605859     
 C       -25.434248330266485        90.065444829431172       -50.391016026392791     
 C       -24.215525681581983        89.292883241266495       -49.885343505806681     
 C       -26.863014990373983        90.570848005704988       -50.593585436756072     
 C       -23.133802832469854        90.110012355770479       -49.178225007447018     
 C       -27.579847322468506        91.049966357127332       -51.856296091099807     
 C       -22.858571692749170        91.416444919885947       -49.923424801786702     
 H       -25.534084616398065        90.884664834055812       -49.678968758060222     
 H       -26.020827943308163        90.962851987263605       -50.587700489375237     
 H       -23.301908305229158        89.590952933592064       -50.399695280659195     
 H       -24.198123065870909        88.214221605640489       -49.729503182475597     
 H       -27.558483147314895        90.832436080256585       -49.796092022102741     
 H       -27.011995132233999        89.783721863371312       -51.332731821169922     
 H       -23.713371304484511        90.411656595206011       -48.305750896954585     
 H       -22.261133906193166        89.482604731601356       -48.996817516217320     
 H       -28.545040695382699        90.661780144491587       -52.181585280448928     
 H       -27.031282446233504        91.087729984801456       -52.797439269002773     
 H       -27.829843358898437        92.105703589784724       -51.751315697126088     
 H       -23.558989297094879        91.976210439840813       -49.303604110674591     
 H       -22.330785500951791        92.044038633075928       -49.205324633744397     
 H       -21.778018382306890        91.358788486551873       -50.054498334360979     
 C       -39.592406470946976       -85.023071826283186        49.413485168031080     
 C       -38.853220377117268       -85.446459225582387        48.143765519796958     
 C       -39.490535463662624       -85.818808321213908        50.715125155635690     
 C       -39.661829417169706       -86.235268896628824        47.113342449512174     
 C       -39.836148611126198       -84.741515357535988        51.743635028441936     
 C       -40.523987494213600       -87.161215457029371        47.971915345351746     
 H       -38.833539014111693       -84.240967689807405        49.436578700946640     
 H       -39.814855590372751       -83.964059603679004        49.282681737900077     
 H       -38.768016021077415       -86.530193958575111        48.064020409110896     
 H       -37.924910940758579       -84.992034530284499        47.797586755597543     
 H       -38.803498022665096       -86.660206706378872        50.805282372522797     
 H       -40.541941194940094       -86.049179258725871        50.543150621127417     
 H       -39.930682439873706       -85.229166257935105        46.791511095831758     
 H       -38.973210202245632       -86.749419724800319        46.442855678964001     
 H       -40.222791989143651       -85.290231235192593        52.602423518474346     
 H       -40.644540681795192       -84.042425519823837        51.529448959988898     
 H       -38.922522875166187       -84.243490327357947        52.068225695066793     
 H       -40.947987258032214       -86.256593556919540        48.407786156138904     
 H       -41.589886124127176       -87.318840543058215        47.807250777915776     
 H       -40.604462964888889       -87.910580947222300        47.184466904510550     
 C       -140.35613964623792        79.207505828633202        33.021403741406274     
 C       -140.51472565455899        77.966318496709576        32.142685670970593     
 C       -138.92863627749784        79.754254178812602        33.055187965710601     
 C       -141.85927565385748        77.242321459916013        32.219200308404730     
 C       -138.81213314998075        81.127144335600363        32.392284684050793     
 C       -141.79726794264289        75.790976578084468        31.742132143465479     
 H       -140.68644103100223        79.587109800508841        32.054500530049573     
 H       -141.13941310490546        79.879939762028258        33.371282708615155     
 H       -140.63876151375914        77.060264437305605        32.735797091595536     
 H       -139.88365561391819        77.742651380635763        31.282555668217753     
 H       -138.02131219110603        79.151313434833071        33.018781275921455     
 H       -139.28281514948949        80.357279870019141        33.891260551080670     
 H       -142.14808288616075        77.372800529163584        33.262112353429501     
 H       -142.52020480801022        77.818881664689201        31.572013292823115     
 H       -139.69510057289048        81.722496414006457        32.624715996542818     
 H       -138.75014534043137        80.977860031527911        31.314336753391512     
 H       -137.94533982294669        81.651679314391998        32.794320011365549     
 H       -142.58377515022843        76.223850462002488        32.360295989407000     
 H       -142.65536144876364        76.366516319037771        31.394958549164020     
 H       -141.94644698820636        76.408436897170944        30.856362227549301     
 C        106.70307998253507       -15.531001930493543       -37.612548223514629     
 C        108.11117574727416       -15.039745676114247       -37.949853059560887     
 C        106.17843405474163       -15.989321843852839       -36.251471257480716     
 C        108.08992356521993       -14.940984808453040       -39.475512107861142     
 C        105.25339176120076       -17.133360333164344       -36.667781012706079     
 C        107.15319129900264       -13.823326755049425       -39.935092449503479     
 H        106.48694708964264       -14.463141693519040       -37.579973910687464     
 H        105.71160278050975       -15.085180462814158       -37.692022826667682     
 H        108.92738226457544       -15.761037150045293       -37.909287679065400     
 H        108.37663491143931       -14.034491767737967       -37.622597789106628     
 H        105.90705114933584       -15.325042907571241       -35.430992861040650     
 H        107.03452120190630       -16.663994127347451       -36.257139764461769     
 H        109.07006023771544       -14.721437241375622       -39.052155446341821     
 H        108.08834867500107       -15.865367973245226       -40.053104828661731     
 H        104.30135945754573       -16.642537568012305       -36.869838916352180     
 H        104.98003116536830       -17.760582216749498       -35.819272485145973     
 H        105.53577751380696       -17.651219316824726       -37.584394547231518     
 H        108.03601486144483       -13.409861703229184       -40.422708231942202     
 H        106.88485212045461       -14.046326400371136       -40.967742065648387     
 H        106.36693600637264       -14.577255149802754       -39.973752181629166     
 C        8.4441687128716794       -58.767057702556187       -35.114293708853985     
 C        7.6249856543967365       -57.828785336118045       -34.227487595272095     
 C        8.0778592718414011       -59.290601267487098       -36.503379895765669     
 C        8.3578708962658581       -58.028278672543031       -32.900490039224522     
 C        8.5144309341601847       -60.559682798410890       -37.235963293835312     
 C        9.6784346980113689       -57.257613450580912       -32.905716697081957     
 H        8.9741120346144054       -57.847304608984324       -35.361911024385208     
 H        9.4425747217131217       -58.711322073696863       -35.548089753705320     
 H        6.9417441570959761       -58.339857817173581       -33.549191217849398     
 H        7.2831839405687990       -56.871029491963569       -34.619884477259099     
 H        7.5578473589013893       -58.722383162749864       -37.274622931605300     
 H        7.7155107120943427       -60.206806653919251       -36.037149013768648     
 H        7.7186823606190789       -57.637276497668260       -32.108874436187357     
 H        8.5656476408354578       -59.068612866700541       -32.650222871688918     
 H        9.1712232013619062       -61.262774888104829       -36.723727723492999     
 H        9.1208088356302213       -60.240178339904688       -38.083502534278537     
 H        7.6704311829206278       -61.096937744070758       -37.668538770407473     
 H        8.7554874227396429       -56.680330856664014       -32.960608090741857     
 H        9.3949808167209419       -57.253542776168153       -31.853225701114436     
 H        9.8276525993719162       -58.183180347731906       -32.349695192579929     
 C       -115.55593212296124       -34.920888567007616       -1.9008784585011229     
 C       -117.05377721721531       -35.210113651678448       -2.0040769275603982     
 C       -114.76592111352363       -36.029141320469940       -1.2041006280215230     
 C       -117.94408224570547       -34.050948808530656       -2.4530030968121266     
 C       -113.32758994225037       -36.130786683372996       -1.7127388297049357     
 C       -117.76472228142352       -33.941825062629277       -3.9675204985029562     
 H       -115.68941378875381       -35.367785012869099       -2.8860516533857687     
 H       -114.97445019606262       -34.205543513640102       -2.4824799119523595     
 H       -117.72413854892412       -34.773847061600129       -1.2635452621457217     
 H       -117.43940369392512       -36.220921063830893       -2.1369700333972417     
 H       -115.18519793995398       -36.963485507915792      -0.83086088377329914     
 H       -114.33811364908806       -35.219360058870137      -0.61305485872485033     
 H       -118.97631077144962       -34.376584448161388       -2.3242954915307581     
 H       -117.73088113437345       -33.090553758507198       -1.9836559956975091     
 H       -112.70535649436209       -36.612730984563640      -0.95864659368011940     
 H       -112.96045291768667       -35.120361595168312       -1.8926042558614551     
 H       -113.30242681388415       -36.752466454233307       -2.6077142992482187     
 H       -118.82833244214403       -33.703957192960537       -3.9834027237036316     
 H       -117.68760507570941       -32.878955890835364       -4.1965664490310912     
 H       -116.75813684936104       -33.576683149671929       -3.7636648248524072     
 C        124.89023952495924        89.752719156266295        57.780497138486680     
 C        123.67237498345573        89.399902014973506        56.925999046751009     
 C        126.14025887961813        90.441385463242682        58.329160304095581     
 C        123.62274207223759        87.905121039525625        56.608182454341396     
 C        127.06442257766095        90.584939259479100        57.119550902489891     
 C        122.74542892252043        87.766213546072947        55.363647462629210     
 H        124.50508993418207        90.487145211151940        58.487871283342130     
 H        125.40196645532947        90.020899565052929        58.704788687036029     
 H        123.86856484869119        89.926688133169364        55.992132941533953     
 H        122.74044590690065        89.560611990522247        57.468014237382846     
 H        126.78354070680406        89.944460585820337        59.055351852610855     
 H        125.83725058087798        91.395188383941075        58.761070015144902     
 H        124.61941843120339        87.620014103874141        56.271358793646804     
 H        123.23735262420631        87.271292366008609        57.406828932589789     
 H        127.91882379343970        91.205897312367796        57.388826853810791     
 H        126.52017744616477        91.079185866550631        56.314804012741945     
 H        127.44093895841587        89.589099549689024        56.885801661065152     
 H        123.49965148054991        86.984175760766817        55.276096443870060     
 H        122.18185514319386        86.916010636441925        55.747886430560143     
 H        122.10201304736756        87.947663954442689        56.224572399635605     
 C       -4.9595882125051514       -65.731874937487490        61.189360873002713     
 C       -4.3103630493608600       -66.927862613842436        60.492251758897048     
 C       -6.4873266536248764       -65.789841235986145        61.167085446745908     
 C       -2.8336331143702291       -67.062178037749447        60.865171276547478     
 C       -6.9241183542899094       -64.353001406710135        60.879778441547217     
 C       -2.4188454551063074       -68.127086736092210        59.849414615612041     
 H       -4.8443101464502316       -66.260189020898110        62.135772622813903     
 H       -4.4126915049336644       -65.159120100274663        61.938330743971314     
 H       -4.3675574879298065       -66.757273929588877        59.417203709871494     
 H       -4.6249241748851011       -67.934211434187574        60.768681403547141     
 H       -7.0544835456283996       -66.029652898393664        62.066487153742280     
 H       -6.7863177321842238       -66.498391417358107        60.394647076502046     
 H       -3.1710195000082679       -66.058040584436029        60.608308875208493     
 H       -2.7483468983504000       -67.295587684317780        61.926465888482909     
 H       -6.6144915471326398       -63.562731385619927        61.563667647155910     
 H       -8.0104806562594479       -64.331804012765517        60.966194178218153     
 H       -6.7082406880608136       -64.053828209903301        59.854111692212037     
 H       -1.9171534555964114       -67.172965739174600        60.010840073033890     
 H       -1.6850992714509219       -67.900227892850467        60.622881847660238     
 H       -2.2524664018538187       -68.552764697465250        60.838968179658885     
 C       -70.424978140217291       -121.38714240876361        75.559237202524017     
 C       -68.939969786633696       -121.02337645715218        75.542942349496656     
 C       -70.466774312949227       -122.83767140743251        76.040962860552384     
 C       -68.417217819583414       -120.34244532100921        74.277673978138282     
 C       -71.559931594872168       -123.61007779298636        76.780041148782686     
 C       -68.800773014107222       -121.24371520692713        73.103604578377173     
 H       -70.584028713848411       -121.01555804743414        76.571525693908072     
 H       -71.186189475833999       -120.60702777440854        75.568096499188883     
 H       -68.267069398063626       -121.59564598457963        74.904340239266020     
 H       -68.368689245221930       -120.88516814727633        76.460894955934720     
 H       -69.613923537308040       -123.51557317052641        76.075528429609548     
 H       -71.370184532328977       -122.98398023074809        75.448895526589411     
 H       -69.140179813400266       -119.66953589545497        74.738779993962908     
 H       -67.377252759800584       -120.05758579114872        74.437134885940537     
 H       -72.393946044384492       -122.91502759974038        76.877123604936045     
 H       -71.259385324391431       -123.68270522671600        77.825267065077185     
 H       -71.740547870339100       -124.60004533166573        76.361183140254752     
 H       -68.948277243599293       -120.16542687502231        73.163909636444686     
 H       -67.984077506281650       -120.66744976442529        72.668832733444006     
 H       -67.734121897560087       -121.46269392664379        73.152632084651913     
 C        104.81094393564877       -75.299148848202492       -101.30862355476023     
 C        105.04695878882922       -76.697293234656115       -101.88075135324682     
 C        103.65624924953370       -74.640919847464161       -102.06443813851278     
 C        106.51130359654371       -76.960791530303553       -102.23303523353439     
 C        102.78067791572703       -73.442506909496089       -101.69698413675971     
 C        107.26573375420551       -77.546154018879704       -101.03887158876704     
 H        104.13300172858195       -75.678267908581347       -100.54392549957453     
 H        105.07549921910089       -75.051099083061146       -100.28072187634636     
 H        105.47774910627658       -76.344911607837460       -102.81795300452160     
 H        104.33763540744916       -77.496522162727558       -102.09567786398651     
 H        103.15819237123397       -75.055821307882042       -102.94073497317808     
 H        104.20275506145964       -73.698384318224441       -102.03190818181500     
 H        106.35955294412386       -77.808774899835853       -102.90086445350533     
 H        106.95013949759299       -76.063198802613968       -102.66875346670886     
 H        101.85475721034904       -73.912711879558927       -101.36580742028386     
 H        102.40779976049146       -72.872057246786426       -102.54765979291687     
 H        103.13034841777889       -72.914073498233023       -100.81008579396980     
 H        108.04307614175254       -77.784701992058146       -101.76477352260441     
 H        108.00045222109433       -76.799400907750098       -100.73779259703390     
 H        106.79796265169983       -76.767910649859218       -100.43585630096013     
 C        49.592369123007884       -147.38930259913255       -87.503434748295234     
 C        50.862152636885732       -147.05936162789970       -86.718176966808187     
 C        49.238633786097985       -148.70948168596573       -88.188883065637143     
 C        50.703547945968012       -145.54296550656926       -86.603162889336573     
 C        49.801773750757008       -148.57294360795152       -89.603828958400669     
 C        51.819565699996033       -144.91473671884330       -85.767894116438569     
 H        49.181080566215201       -147.54563154579776       -86.506187037928569     
 H        48.531831643771255       -147.39312213908647       -87.251749044305782     
 H        51.649770722530533       -146.60102384538808       -87.316244043680300     
 H        51.192391612863645       -147.72019118421278       -85.916711747457398     
 H        48.201087910510168       -148.98529300572039       -88.377368322966376     
 H        49.692027169551892       -149.51848697335643       -87.616130997782918     
 H        50.715681886306356       -144.98289586557183       -87.538189479535347     
 H        49.695812670430428       -145.43913361179676       -86.200933350560049     
 H        49.196888996501279       -147.80507190004295       -90.086102073830034     
 H        49.476607478694270       -149.44522806624730       -90.170826972767671     
 H        50.887864391471744       -148.48295511550805       -89.624057645620582     
 H        51.012489525763826       -144.37273561421716       -86.260806664989616     
 H        50.807439951251112       -144.76952409204844       -85.390250466752562     
 H        51.208194214707149       -145.50488198905830       -85.085213045208619     
 C       -8.1845854120818906       -103.37009785435649        39.442344586658820     
 C       -8.4921523029324639       -102.05233163352388        40.154198360186093     
 C       -6.6947928800385910       -103.58774868034868        39.175910288847405     
 C       -9.9882006543044355       -101.75573999190287        40.045968922131919     
 C       -6.6392859419223615       -105.11099214582750        39.055538095744339     
 C       -10.443818605374496       -101.76008098659665        38.586436669399923     
 H       -8.1800445754209665       -103.56519882478958        40.514732111989140     
 H       -8.8225170240293629       -104.25070573960645        39.367025012460509     
 H       -8.5633149561631399       -101.10997596887758        39.611057790678508     
 H       -8.0940191803753070       -101.90683328751179        41.158399649575600     
 H       -5.9478986139745285       -102.90207500726137        39.576036005966969     
 H       -6.9650510564763648       -103.47414591491554        38.126074611504073     
 H       -10.362020047550626       -102.69645548188755        40.450213108921943     
 H       -10.223399453114391       -100.85089086625169        40.606352401969922     
 H       -5.7851331730302471       -105.39935354684282        38.442863118542462     
 H       -7.5585252446375435       -105.44581537280546        38.574921262679780     
 H       -6.4987728101337900       -105.54808671049615        40.044125177004474     
 H       -10.610804951967422       -102.79755429896265        38.876030567222919     
 H       -11.501971011188845       -101.54326997020638        38.732746104422631     
 H       -10.597473934802194       -100.69520375920645        38.761155051949409     
 C        8.8153063745991087       -104.71256879660532        15.138210852341762     
 C        9.3119888538557092       -106.15093658746474        15.287360379294460     
 C        7.6577089166782297       -104.80003037317509        14.143143202676240     
 C        10.595361777074190       -106.09267492322910        14.458264240700917     
 C        7.1673115019426952       -103.35689003121529        14.021910661546295     
 C        11.399840387126474       -107.32668308860259        14.867994590625363     
 H        8.1315362784937406       -104.77923059807434        15.984446440033924     
 H        9.0585873062862401       -103.96188915980009        15.890138003418256     
 H        8.8413147775282823       -106.92843693301407        14.685646878160060     
 H        9.6466619919331222       -106.47845515311288        16.271649702610599     
 H        6.9723239565319970       -105.63176444047922        13.980152628178686     
 H        8.4279600970980653       -104.64448342126612        13.387750395148791     
 H        10.311738170497843       -106.05564566005408        13.406462724095629     
 H        11.207031340397144       -105.19187938830689        14.508541661680137     
 H        6.4080281636389547       -102.99951473918165        14.717519477124863     
 H        6.6653365834534419       -103.27575248465578        13.057785182191562     
 H        7.9906704136017126       -102.64374571825424        13.981843959174714     
 H        11.404711618064466       -107.40721435279909        13.780984505920030     
 H        12.401647784931647       -106.89772773458166        14.846103384168531     
 H        11.590346705609246       -106.74859328806095        15.772217741730604     
 C        24.152410454320130       -107.76936530734916        35.834018448247583     
 C        22.846896657124567       -108.55021987270912        35.988099079838328     
 C        25.242533388747884       -107.97712772248390        34.782206824504087     
 C        21.994900265000329       -108.00053020360231        37.132557198544916     
 C        26.337355033996914       -108.75801383281220        35.509821824937042     
 C        21.110125103732454       -109.09418796606813        37.731662041290868     
 H        23.503118947413011       -107.05039676198514        35.334413825259091     
 H        24.384765175001199       -106.71719410892305        35.669558434577475     
 H        23.189191812403909       -109.54239173455892        36.282257208592334     
 H        22.196872807355494       -108.42197014181127        35.122581333529311     
 H        25.794580294897745       -107.13267351008243        34.369603734753632     
 H        24.803787546090707       -108.52002538042525        33.945030462755192     
 H        22.790219095749539       -107.86266871522776        37.865061174752874     
 H        21.470371298161183       -107.10452771318131        36.800670311047398     
 H        25.912125678470382       -109.66804465077674        35.933052003062521     
 H        26.724891269345484       -108.14782543822922        36.325656254790722     
 H        27.070264188111562       -109.05431085630977        34.759387107318901     
 H        21.285937713697695       -108.04760325830016        37.980359289398358     
 H        20.583762648506884       -108.28231951946715        37.229753515851492     
 H        21.081230503148515       -108.78324550134484        36.687353719029367     
 C        37.284165478657521       -80.156395883836637        62.285718134191363     
 C        37.752822633431123       -79.111405835259973        61.272704199475577     
 C        36.059421442888869       -80.947653869467104        61.825550939548904     
 C        38.391584762987641       -77.844910031121458        61.843503831207308     
 C        35.743216363003938       -81.751741758956399        63.087017600064719     
 C        37.931553489592687       -77.604585030097383        63.281716636524969     
 H        38.025165907170283       -80.629911162308971        61.641667166645149     
 H        37.851002371170566       -80.581857181617067        63.113835649346356     
 H        37.192989174916562       -78.180489736133978        61.182805766782792     
 H        37.987609144453003       -79.371610241158862        60.240585525468482     
 H        35.938240479641358       -81.392083483473513        60.837675705574853     
 H        35.489285942605285       -80.101118235390047        62.208203467545125     
 H        39.124142103353144       -78.615546023789520        61.603545908331625     
 H        38.481990539634211       -76.974121234267386        61.194155132660072     
 H        34.657528340883658       -81.848360385046604        63.080216889857397     
 H        35.937370788866552       -81.284502109460618        64.052466297952307     
 H        36.134189859283971       -82.755283189873893        62.919254832599968     
 H        38.951264250109453       -77.514739954904499        62.907260026653340     
 H        38.194480025201592       -76.592895771810419        62.972759597940808     
 H        37.297087611838919       -76.880543241128990        62.770525362617178     
 C        96.299094853894772       -1.9821752506415806        141.75760228402294     
 C        94.982625409259711       -1.2115611201978080        141.86202001864044     
 C        96.254580489691861       -3.3322558689137445        142.47394138052877     
 C        94.352082372686624      -0.75488012879671662        140.54607973355687     
 C        97.617858514387109       -3.9081510534569537        142.08967727371305     
 C        92.983875100479082      -0.10798570409626107        140.76374328949078     
 H        95.965356781913499       -2.3604675264130877        140.79136532253398     
 H        97.001564610985369       -1.7783107439331591        140.94947139696237     
 H        95.082646515278469      -0.18455672553707658        141.51079679638835     
 H        94.335843538794364       -1.2241823626068020        142.73929642768056     
 H        95.456366255808703       -3.9357709141894102        142.04182607839428     
 H        96.333623733404679       -3.1277875221097764        143.54167023468329     
 H        94.912746516786143       -1.8001196383220064E-002   139.97095790634094     
 H        94.354294090828986       -1.6685463682484805        139.95168158333416     
 H        97.863317419292912       -4.6025627607136386        142.89319590624467     
 H        98.487183492359463       -3.2507654251396634        142.07490466675296     
 H        97.518819128808900       -4.4972986043362342        141.17797755376958     
 H        93.412626203343777      -0.37897784531898659        139.79894503071532     
 H        92.972075627182704       -1.0944745166787129        140.30027747685634     
 H        92.931096774774389       -1.1095811367075390        141.19049967866988     
 C       -79.638164132905374        76.525286817604666        54.635889983433302     
 C       -79.495969597619947        76.764027154228273        53.132352583356884     
 C       -78.742417934875988        75.404450358667106        55.164288798353958     
 C       -80.762883910494281        77.179047116772466        52.383668701786071     
 C       -78.260555204052110        75.926355731856532        56.518269680749874     
 C       -82.005715182378168        76.932250860277961        53.239415716804828     
 H       -78.908914557800287        77.330420253237989        54.546139157658025     
 H       -80.054075254535562        77.203272570744133        55.381177382757194     
 H       -79.933234468692788        76.041548018270333        52.443205741680131     
 H       -78.537955221921322        77.009934428977019        52.674271792208273     
 H       -78.131759102471406        74.705539087662842        54.592695548285178     
 H       -79.661901173937451        75.010942831919877        55.597650564414117     
 H       -80.095629629520019        78.018010015272651        52.581185541629885     
 H       -80.833053926781133        76.949994266104653        51.320319750600774     
 H       -77.202030651035102        76.116397436180833        56.340759650870261     
 H       -78.187089584265308        75.169367056408021        57.299083977770060     
 H       -78.659372375975209        76.910803399217173        56.763030101794328     
 H       -82.414280398052966        77.838919460263597        52.793179841498414     
 H       -82.952716466153817        76.570440725518893        52.838938495552611     
 H       -81.912325810219969        75.848848475514856        53.164464484433239     
 C       -70.605574516375199       -33.255754598069522        43.797532318322403     
 C       -70.680107644934210       -34.598293693078915        43.069607554086133     
 C       -70.648835970897650       -32.175404896783355        44.878649337809655     
 C       -69.868120252376016       -34.722215631392324        41.779971648942777     
 C       -72.029311579792193       -32.173904224311990        45.536012130511970     
 C       -69.562348959516697       -33.335385145907978        41.213362385066546     
 H       -69.592910282235820       -33.236515699546729        44.200323889471250     
 H       -70.113152726317836       -32.345222194799888        44.138928901982887     
 H       -71.151098572891442       -34.505644123740652        42.090994434644614     
 H       -71.009952361151377       -35.527313758428896        43.534606709284382     
 H       -70.633886853164483       -31.124951034604624        44.588092624157930     
 H       -69.874358319806063       -32.196790949953595        45.645348144284597     
 H       -68.931547937534290       -35.222183280133478        42.026881723088032     
 H       -70.344640058054296       -35.316804851207017        41.000553543099613     
 H       -72.394062657246707       -32.984948833924456        46.166300321902824     
 H       -72.907764346981423       -31.957988983660421        44.927899143586892     
 H       -72.092039317740898       -31.346510593257104        46.242825443443742     
 H       -69.488985202197313       -33.775273939159099        42.207955529620627     
 H       -68.697026368840227       -33.919260942689490        41.527059412877527     
 H       -69.135207253503538       -34.263074229348760        40.832517418793110     
 C        42.032251403557034        37.834960422645203       -6.6661510397769241     
 C        40.634107757049080        37.716861325844121       -6.0586249903635503     
 C        41.975607133189961        38.783950187556165       -7.8636696297960196     
 C        40.005286035527355        36.323153190579049       -6.0572601642884836     
 C        43.455625765484001        39.128237575117339       -8.0335289248795831     
 C        40.446441204314389        35.852418067885786       -7.4434894243012142     
 H        42.303053309263007        38.650382567583094       -5.9954401727905244     
 H        42.929524481862309        37.674110378001956       -6.0685488889044974     
 H        39.890063614662978        37.428940809114252       -6.8013228622442679     
 H        40.196199766199342        38.454940264463872       -5.3866309278048385     
 H        41.099712907391549        39.407194350387826       -8.0438807097237639     
 H        42.075791353406700        37.878702888146485       -8.4624938690779246     
 H        40.682683608859776        36.541314562051220       -5.2316464336309725     
 H        38.937983695917033        36.408069894876924       -5.8529200743962093     
 H        43.797967476339274        39.707411937666478       -7.1759398103525562     
 H        43.561953976886166        39.725618421211145       -8.9390290441626981     
 H        44.040512281788530        38.209008224323775       -8.0655473612849775     
 H        40.757591457576630        35.415037885291781       -6.4948145372394297     
 H        39.893858199708447        35.123713213594613       -6.8504116594851068     
 H        39.380126990224412        35.641301897588512       -7.3628423801866090     
 C        22.756243530887527       -150.37044864920875       -81.113495279534632     
 C        24.101672564571061       -149.69307882965401       -80.851137111109992     
 C        22.822195696255580       -151.89745740351481       -81.071836000591176     
 C        24.650984987881369       -149.13324226610260       -82.163646109258082     
 C        21.406060051786319       -152.23820391541574       -80.606763115286611     
 C        24.087383260642703       -150.17475510012332       -83.130830222870244     
 H        22.828332009027108       -150.18323341298705       -80.042115929548984     
 H        21.762813574928018       -149.92767272481623       -81.041756547495112     
 H        25.046461238907717       -150.21118848614415       -81.015565711360878     
 H        24.169048021512928       -148.99127245346824       -80.019855985140680     
 H        23.758731017490518       -152.41230573958921       -80.857516617348054     
 H        22.510067934714524       -151.84270368745769       -82.114754171680730     
 H        24.046879147387390       -148.44809491844310       -81.568894788044162     
 H        25.733140034814532       -149.02754292982891       -82.087042533283849     
 H        21.300542435633407       -153.30657157947013       -80.795327304689081     
 H        20.555235408055452       -151.82050456142503       -81.145023914250416     
 H        21.334314281306941       -152.09592094701634       -79.528473674623356     
 H        23.810065366901487       -149.20802115885792       -83.551092305610553     
 H        24.883410571412519       -150.05242075243143       -83.865319708601319     
 H        25.088721114254206       -150.48395638281676       -82.831135284706164     
 C       -103.82536079401811        138.61225606582639        35.936408485604304     
 C       -105.12199880576394        137.92959328271971        35.499896869427957     
 C       -104.02030902430764        140.05708122235475        36.397186480095222     
 C       -105.15283091057118        138.17218560308174        33.990579397787783     
 C       -102.61717753835732        140.62326577466271        36.176963352549684     
 C       -103.78743436594551        138.01494141087275        33.320648429015357     
 H       -104.24601220765913        138.11337629973428        36.809490027919388     
 H       -102.88564509072307        138.13770158550810        36.218954888048685     
 H       -106.06241474554869        138.44259624011164        35.701256810967251     
 H       -105.16690370095380        136.84469635118461        35.595197341171733     
 H       -104.61481442432959        140.36307841364055        37.258016935157009     
 H       -104.27531629197090        140.25265313646207        35.355638142513243     
 H       -105.91789222655191        137.47607461619236        33.646761687342128     
 H       -105.50401522028028        139.19847124935777        33.883306821714953     
 H       -102.09245055587978        140.38284060685089        35.252324398207264     
 H       -101.97609199606156        140.17861484815788        36.938143300033047     
 H       -102.57420072088890        141.69818335121167        36.352477477874459     
 H       -103.86810129615952        136.95275127508813        33.551613590533286     
 H       -103.64512190328523        137.56665446263068        32.337344830731404     
 H       -103.98974840650510        138.80142086044242        32.593586470147201     
 C        64.797670848480010       -87.720541412823877        34.432956549587594     
 C        65.161452708379230       -89.205579344878757        34.420068618551511     
 C        63.541019163691686       -87.406023691470224        35.245204080646026     
 C        66.411622701219088       -89.470755656611416        33.580665619103442     
 C        63.893282260966515       -86.025962559200636        35.801246454517276     
 C        66.639734596310660       -90.972314437504238        33.404236741549354     
 H        65.478427718611201       -87.900983879195067        35.264888405237244     
 H        65.442855775446944       -86.875022960224584        34.194346022425719     
 H        64.333106499832468       -89.746788861660306        33.962865361911646     
 H        65.501524162598812       -89.673481854795924        35.343929337934640     
 H        62.993108830107097       -88.126924169409349        35.851996294958560     
 H        63.175610868314784       -86.954051329806219        34.323088154295071     
 H        65.634153636516828       -88.946018576290172        33.025424464121755     
 H        67.289362297246370       -88.847002492704519        33.749796524796821     
 H        64.243019023878688       -85.255818943003163        35.113741639666678     
 H        64.749122567819001       -86.162822831527635        36.462235612112366     
 H        63.101323086874785       -85.620953900759503        36.431221584630961     
 H        66.809038153805801       -90.104974524219827        32.766147637166640     
 H        67.540324638599913       -90.363024605876376        33.480417057783491     
 H        67.049095666399936       -90.380178172865925        34.222709787995385     
 C        81.509248506082798        92.301829652512978        129.98733568555559     
 C        81.770772963153817        93.503245231260067        129.07846466536330     
 C        80.836049879842946        92.670727808782388        131.30966646082379     
 C        83.014557445585510        93.334102429235401        128.20540576484495     
 C        80.032828769738529        91.815775534539995        132.29034664914172     
 C        82.631147105468315        92.993387066925592        126.76500632268410     
 H        80.651437343156687        92.339221087741933        129.31587318073321     
 H        81.478262249036121        91.249041395781163        129.70666366953935     
 H        82.769240973757050        93.701534597073774        129.46813502828667     
 H        81.231762927288798        94.446470727457097        128.98961761658578     
 H        80.683176965615061        93.685114521471718        131.67810843463306     
 H        81.430315179732020        91.900037350257804        131.80056868621952     
 H        83.318933174865904        94.379982395457887        128.16552570264489     
 H        83.704697893915650        92.638239564285826        128.68246031177813     
 H        79.020219421434646        92.216553822340899        132.24453233446897     
 H        80.259493257308947        91.873944807503293        133.35493086152428     
 H        79.986908502531207        90.790161847276536        131.92413919254443     
 H        82.570081287793101        91.926626313571020        126.98039528848051     
 H        81.593601325447224        92.663972227936526        126.82054545285661     
 H        81.937858201359063        93.802743444845717        126.53611172856979     
 C       -66.581411798667759       -123.08799803151943        102.73946059457904     
 C       -66.990482511227285       -123.82992942127743        104.01226850035974     
 C       -65.550814468593444       -121.98436061791784        102.97965740592296     
 C       -68.285276987552379       -123.08418940850032        104.33664479450742     
 C       -66.234524499877637       -120.70546510094456        102.49508749788144     
 C       -69.079893478986023       -122.99672790684292        103.03327375476715     
 H       -65.936660232825488       -123.96620772576949        102.77327129724488     
 H       -66.704332260993368       -123.41799481089181        101.70791189825434     
 H       -66.823127108901787       -123.26636815948750        104.93014151645347     
 H       -66.851606163726331       -124.90888553348709        104.08058430827478     
 H       -64.608410098968847       -121.96571885874231        102.43227590348442     
 H       -65.310482597372300       -121.97347346510894        104.04277645287689     
 H       -68.271456331058218       -123.99516095908979        104.93500899865381     
 H       -68.038953450557443       -122.18029807628982        104.89378502202254     
 H       -66.433678288690572       -120.87965753377034        101.43768755006056     
 H       -65.667799461519067       -119.77457109427347        102.47613786160551     
 H       -67.200705967020312       -120.60127679364716        102.98878597235237     
 H       -69.471234512029369       -123.32735571723371        103.99537425451956     
 H       -69.432589152782398       -122.36121842936274        103.84557507017453     
 H       -68.826680104388089       -121.97546116327537        103.31787382737723     
 C        34.620704879756460       -68.263521339827406        24.429058814478438     
 C        34.009918148003926       -69.527263521924581        25.035471434320193     
 C        34.393993397860797       -67.873346649334451        22.968166443181797     
 C        34.731173192760046       -70.121827169180776        26.245482224585725     
 C        35.347554610991814       -67.260694604611231        21.941901531715228     
 C        34.236447370842782       -71.518316899334664        26.623508358183031     
 H        33.861505214619548       -67.765750855148212        25.032333565635696     
 H        34.852552347690121       -67.616230568791693        25.274849235734457     
 H        34.671398623182114       -70.387847202524739        24.935775347167620     
 H        32.982214054689919       -69.849518629904153        24.867912717603890     
 H        33.424467736810307       -67.819157933592450        22.473006266943170     
 H        35.213425838655951       -68.535391900294485        22.688297572351996     
 H        35.780500047005390       -70.067334385848937        25.955579429120256     
 H        34.529590423683615       -69.423149315534900        27.057463564735627     
 H        34.854556210183155       -66.344944034642097        21.615629638264053     
 H        35.520455740176871       -67.781586052291345        21.000159902780581     
 H        36.272750738831583       -66.965936039885847        22.437108073627158     
 H        35.251837814825748       -71.246077467957264        26.911549798940221     
 H        34.028459046765477       -70.932524290472898        27.518878587335003     
 H        33.375390046372360       -70.850868950793000        26.588961317816558     
 C       -40.326541543970272       -135.81200212590781        14.823235541122530     
 C       -39.578140592889639       -135.78546869927118        16.156289551165830     
 C       -39.868798256317056       -134.54913349674516        14.092841939204636     
 C       -39.767135009097224       -137.12460444868964        16.869617973462034     
 C       -40.355850227459392       -134.59901739713249        12.644348540113240     
 C       -41.274627392602625       -137.35937586213200        16.970563736461763     
 H       -39.568069750130043       -136.41266525173646        14.321215263081765     
 H       -40.756664157783149       -136.74059383638243        14.447986291065609     
 H       -40.082676442821629       -135.54754742529445        17.092738718859142     
 H       -38.545447638177080       -135.43669515233964        16.157791492819019     
 H       -38.809695127935399       -134.40852898074297        13.876899928025770     
 H       -40.126601610467745       -133.58750980932311        14.536595667275693     
 H       -39.221401931364632       -137.31785012470240        15.946075113653183     
 H       -39.146405209477926       -137.13511673672309        17.765544346610774     
 H       -39.683047415849522       -133.94695693661214        12.087344577183984     
 H       -41.322786200627604       -134.09734724969562        12.682583622774164     
 H       -40.365686187639938       -135.55467002116592        12.120200362602057     
 H       -40.540849788039282       -138.04980495322820        16.554657470966742     
 H       -40.899676568828340       -138.08388975841089        17.693468615211856     
 H       -41.051574205660238       -137.19142117315107        18.024194828797068     
 C       -115.47598492665725        48.232063801302637        148.87616996131109     
 C       -116.91896594242743        47.981001746936222        148.43729116858287     
 C       -115.37025115809101        49.643940295305306        149.45346205305361     
 C       -116.76639118301840        46.576690350879758        147.85208066384627     
 C       -113.88022842098022        49.927432643578321        149.26031617201156     
 C       -116.82021705130551        45.629169601412158        149.05089180450733     
 H       -115.65641829128681        47.809726197806853        149.86469146320030     
 H       -114.81688641800490        47.413484657776692        149.16533656165345     
 H       -117.07705771581524        48.055203617662102        147.36137245191321     
 H       -117.74405890016708        48.314264395759722        149.06678113130573     
 H       -116.03512325495836        49.974324336759530        150.25151688854129     
 H       -115.60518120985680        49.971101069270958        148.44060780509588     
 H       -117.55755667385765        46.434168568703427        147.11597968268890     
 H       -115.90053034556172        46.365599996689454        147.22452513496529     
 H       -113.79598472593028        51.013453990202912        149.29981991882707     
 H       -113.41419778100723        49.691293495323229        148.30367945650104     
 H       -113.32284900909153        49.533069398496693        150.10996661265597     
 H       -117.67345603871976        45.941805193849909        148.44894318567594     
 H       -117.13501678373160        45.204141383167773        148.09781672763816     
 H       -116.26442521374624        45.115056947238195        148.26674667306122     
 C        54.473677787983206       -4.9159855978183593        11.238704626889032     
 C        55.517130133992289       -5.7492824235049635        10.493946544080414     
 C        53.411720538255302       -4.3059576560861110        10.323306562824234     
 C        56.428012531295678       -6.1216860872248136        11.664181414657525     
 C        53.400529181441577       -2.8592470902828016        10.818023079942526     
 C        57.524182363003590       -7.1194004990479582        11.288923349489847     
 H        54.110875216365592       -5.9420128068849349        11.299880378852590     
 H        54.238064477166489       -4.9404555381707222        12.302653693869608     
 H        56.469203926309568       -5.2404310041960294        10.343195997810440     
 H        55.204921758358530       -6.4266677646561821        9.6991037851912889     
 H        52.452413184753823       -4.7808656365799322        10.528956311104691     
 H        53.846275707304024       -4.2517755047545709        9.3251451807092565     
 H        56.786063750288612       -5.1530722991439841        12.013017472730297     
 H        55.760180723667986       -6.5632942602588713        12.403831974682740     
 H        53.017171048009956       -2.8235562924859838        11.837759607885530     
 H        52.744692268098397       -2.2836865723978672        10.164794128811238     
 H        54.419980069675802       -2.4738544710105641        10.835123706735311     
 H        58.115615118609512       -6.6719838157521432        12.087750959884159     
 H        57.776517557651374       -7.9935762869293772        11.889126342497020     
 H        56.806319277431577       -7.8937983452481504        11.018589197356473     
 C        68.567018099695829        54.749336216337340       -100.14065255570020     
 C        67.647065468098489        55.936729115342082       -100.42635544419012     
 C        69.961060618834878        54.139505087760526       -100.29096056012548     
 C        68.036278844672765        56.345413566737157       -101.84738706822195     
 C        70.151621903542647        53.440065493870975       -101.63718180912959     
 C        66.977154708084242        57.358490655498329       -102.28301513868848     
 H        68.679041771953266        54.566967533335841       -99.071871764750995     
 H        69.017829657043976        53.845661396998594       -99.730480816704443     
 H        67.897421635233599        56.897107252971487       -99.975694083411227     
 H        66.578754005517766        55.730803668336996       -100.49272824859391     
 H        70.563963899737445        53.735919716504633       -99.477494823899576     
 H        70.176773895412936        55.022859778310448       -100.89200322622824     
 H        69.056088909849265        56.729015940937060       -101.81678328226411     
 H        68.163244442138719        55.564543422163730       -102.59720145635040     
 H        69.600067821738193        52.506092608023586       -101.52955906599794     
 H        71.166908516807865        53.061432225191503       -101.75520723422326     
 H        69.722222639919266        53.956403276310787       -102.49573385529845     
 H        67.718422306329145        58.010244574454461       -102.74544256483085     
 H        66.943486123683144        57.280504690638111       -103.36970028327512     
 H        66.178184033547055        56.695818502286748       -102.61559817044849     
 C        33.958993758742452        39.570548171915632       -89.216167044668396     
 C        32.456559027271027        39.502374835721731       -89.491636089467804     
 C        35.098340645006850        40.271276535340704       -88.475417806767183     
 C        31.674638088200222        38.417369932775344       -88.750552474871469     
 C        35.717331919392969        39.368722230418641       -87.407669404257575     
 C        30.194356365915120        38.419218059366024       -89.133440910193997     
 H        34.336691749154653        38.646361854957441       -88.778761173377731     
 H        35.020503315571169        39.341235761314202       -89.122821709644995     
 H        32.068642890138420        38.670570912238134       -90.079618513314543     
 H        31.897079014460264        40.361915449463865       -89.860786546778144     
 H        34.536998062024814        40.988046979322014       -87.876055962198592     
 H        35.769417849622563        40.686810463900244       -89.227140471909578     
 H        31.997125743664675        37.389531336267389       -88.916833802892285     
 H        31.893409460763561        38.638223521019171       -87.705821493518513     
 H        34.887841397682884        39.054403417004281       -86.774227184254215     
 H        36.325445593541900        40.053011151179575       -86.816022151221873     
 H        36.234022247363150        38.459652873622339       -87.715442074028829     
 H        30.321196461887265        37.565227279966543       -88.468075390932086     
 H        29.861160621572534        38.860240934084757       -88.193983939519242     
 H        30.502949233963353        39.444958660858937       -88.931632500097280     
 C        102.27484794485740        15.939180900281196       -10.053227831710855     
 C        103.65389825979975        15.414448158922841       -10.454122738923092     
 C        100.89295838144234        15.615193141762148       -9.4846734222801370     
 C        104.84478915963169        15.941321894961694       -9.6528587805611004     
 C        99.621287961387623        15.124905476300333       -10.177719959542131     
 C        104.64122955031735        15.666892543281410       -8.1625256189164066     
 H        102.33759823962285        16.702725540405510       -9.2778814514453103     
 H        101.43557214799078        16.572587563368064       -9.7659784639997937     
 H        104.34395074327878        16.088393844071234       -10.961788792817018     
 H        103.78163999702167        14.469329069004718       -10.981883951483058     
 H        100.55186556894135        15.859184161991692       -8.4785799466807834     
 H        100.98402972703484        14.610612728120532       -9.8977402781380217     
 H        105.73334976858807        15.411422580215897       -9.9960302872500932     
 H        105.04388204572575        17.004861449414779       -9.7845617432920253     
 H        98.894696417738913        15.935923623943065       -10.226854135427489     
 H        99.209490772416032        14.305679022964338       -9.5883210120990903     
 H        99.856229248937439        14.830010180361983       -11.200431731369166     
 H        104.80955542713291        14.616177280220873       -8.3986691710953796     
 H        105.45191036853991        15.416843898888704       -7.4781483134537297     
 H        105.09563124076965        16.612804255933497       -7.8677882358816191     
 C        2.9976029669224844        61.307429691558319        86.247734304684997     
 C        2.5716461319710806        62.594461255509806        85.540661825780688     
 C        2.6416117504070975        61.280160231987438        87.734464821738641     
 C        3.5805670416397897        63.720726155109773        85.767480851911060     
 C        3.1480700409387330        59.975892826470563        88.351090848613410     
 C        3.2520687804106130        64.929748617864547        84.891013778949940     
 H        2.0249820484491483        61.080455711424712        85.811166598981416     
 H        3.2450804187018591        60.348429361385406        85.792571394159154     
 H        1.6199594258320724        62.909512531970385        85.968604713222334     
 H        2.5638512030789897        62.619992897272404        84.450988769790584     
 H        1.5986954125219413        61.178080904522858        88.034473669333764     
 H        2.9586460208711109        62.125401392623964        88.345330336680306     
 H        2.9970567909603343        63.491156126012292        86.659059947189334     
 H        4.6317524324118500        63.457001425210564        85.883922285943314     
 H        3.1333004841852556        60.168162914506425        89.423897431302038     
 H        4.2168530867416667        59.839663641160676        88.186031956038036     
 H        2.5151197718620089        59.104430120116746        88.183679020422773     
 H        3.6888031156273562        64.956552701158358        85.889334662902854     
 H        4.3417026431858829        64.957930824852326        84.889069916697338     
 H        3.9285914241245470        64.402940433049991        84.218042583576008     
 C       -111.79607592045457       -44.740657906216548        87.096599034087248     
 C       -112.77039499148601       -44.849850933839370        88.269893623665652     
 C       -110.95102906627700       -46.000886600025240        86.908024238460087     
 C       -112.15662300469606       -43.923610844247214        89.320228872906384     
 C       -109.66500927625893       -45.723637262229026        87.687207802541593     
 C       -113.21186290946177       -43.801084948273733        90.419909323502225     
 H       -112.60507950352951       -45.052083810351448        86.435821375242853     
 H       -111.98071786948472       -44.040045308009496        86.282259222032053     
 H       -112.72532002053529       -45.745221041294897        88.889878002544606     
 H       -113.77384682707211       -44.451814620362697        88.119057619171926     
 H       -110.57146632361717       -46.282059956194175        85.925693513233597     
 H       -111.51898236345042       -46.847986673758193        87.292667635568662     
 H       -111.20923923182715       -44.359758925518463        89.636991851215384     
 H       -111.80308975505457       -42.941760493320949        89.005452446829793     
 H       -109.03894836937945       -46.615887729245301        87.681147474085662     
 H       -109.92059294417953       -45.489933972404934        88.720725965382428     
 H       -109.12913923736204       -44.940938744617220        87.150247510145647     
 H       -112.50979318074623       -44.624477614242032        90.288674662999753     
 H       -112.29338903850275       -43.686194703154911        90.995501148634233     
 H       -112.65573329735115       -42.882345412895901        90.606289313340284     
 C       -84.847135285476952        9.0719895327586428       -88.979585962561046     
 C       -85.153054415241215        7.8909563754031291       -88.057948741485887     
 C       -85.039499613949317        10.521345715307318       -88.532144874956629     
 C       -86.648488232201728        7.7097431114129202       -88.320018073588429     
 C       -83.746628734363554        11.116368325192878       -87.973329932897556     
 C       -86.822119786467837        7.6321605416555389       -89.837144956283836     
 H       -83.813249321874920        8.7916821234634241       -88.778072729976898     
 H       -84.169894411241444        8.6819003435366824       -89.739372281245835     
 H       -85.262459690945320        8.0797028824851242       -86.990004341311760     
 H       -84.720862227102472        6.9215266354933718       -88.305972678780734     
 H       -85.853849885810533        10.653439291766320       -87.819765106677934     
 H       -85.575765631028531        11.078759281931696       -89.300135059268698     
 H       -86.309391843914895        6.8507035394018576       -87.741084095916619     
 H       -87.198322249877677        8.4504798550691014       -87.739422096989784     
 H       -83.547212987449925        10.546401201731584       -87.065877057564151     
 H       -83.748758724861958        12.143559715657936       -87.608674868301136     
 H       -82.926940392479267        10.915173284496333       -88.663062917235251     
 H       -86.891720324860955        6.5829570688897006       -89.550042577257173     
 H       -87.908919930888487        7.6947370134820154       -89.892368264361608     
 H       -87.153834403898486        8.6646000656700011       -89.726990410154471     
 C       -81.685595506533716        37.598959010411740        31.940744214433419     
 C       -81.106759687184905        37.949582211736761        30.569666731235852     
 C       -82.936344947776092        37.458120057339698        32.808863520846295     
 C       -79.920072504404644        38.910509138349198        30.648621494993321     
 C       -84.028279772111475        37.826899465219526        31.804114185085687     
 C       -79.937709475488617        39.932847483784769        29.511803917404492     
 H       -81.452791363061635        36.574997160796556        32.232984481440731     
 H       -81.835917737358912        37.214284106212169        32.949470377642491     
 H       -81.252697465118132        39.024419978864927        30.677025659498288     
 H       -81.429010066485802        37.646415473725774        29.573501783255292     
 H       -82.896654419292076        38.197339270508976        33.608913284433910     
 H       -83.078340552743086        36.392774673713532        32.990457868148276     
 H       -79.844220538867603        39.512329794608171        31.554247431392039     
 H       -79.066181893926213        38.233180201192248        30.662635274848924     
 H       -84.939537755054118        37.742088378264391        32.396157981992893     
 H       -84.225587242434614        37.068893440029107        31.046092650854444     
 H       -84.007041711223039        38.878181465492169        31.516964205584436     
 H       -79.369683214314023        40.401720795567989        30.315298735116514     
 H       -78.923162917772942        39.712522488058802        29.179761514164415     
 H       -79.759561033292783        38.944419670722773        29.088278749248403     
 C       -90.046783365212477       -112.04817032500479       -123.72974504828493     
 C       -90.497761987728182       -113.08129494424696       -122.69673354151821     
 C       -90.827027373728896       -110.78035274133890       -123.38089137570626     
 C       -90.427178169012350       -114.32992739374977       -123.57637882108153     
 C       -90.616785474016737       -109.95255933448746       -124.64911746721309     
 C       -91.399919626777688       -114.10652644024717       -124.73469959659818     
 H       -89.190940615011939       -111.71885428755265       -123.14052170819672     
 H       -89.119571606658113       -112.18876293192842       -124.28527366676929     
 H       -91.506063690555337       -113.48901250318984       -122.76880349818626     
 H       -90.220296214061463       -112.95082654783481       -121.65074561897546     
 H       -90.837545725442780       -110.30351788006391       -122.40078020377196     
 H       -91.673182492260509       -111.29106822887687       -123.84055563657998     
 H       -89.436275782343003       -113.87587501778681       -123.56939324488630     
 H       -90.518871636995357       -115.21135925143142       -122.94173699642567     
 H       -89.674588523843283       -109.40959533106005       -124.57458620157016     
 H       -91.425661351057940       -109.22719219956538       -124.73665257623074     
 H       -90.527993081067635       -110.65524031818528       -125.47764350498123     
 H       -90.342003223367840       -113.91980385239374       -124.91921920848294     
 H       -91.053278651410992       -115.12704532068484       -124.89743010192350     
 H       -91.814725993598259       -114.87898734307610       -124.08713507741578     
 C        7.4040503077645070       -105.43085679955220        146.48822682507901     
 C        8.5707862947227138       -104.45955724966011        146.30616839752039     
 C        7.3378762607214565       -106.76723342225816        145.74825417843391     
 C        7.7872275536069813       -103.14783395311868        146.36325239528094     
 C        7.0547950628129961       -108.17822320255584        146.26479459064532     
 C        6.4328045785233243       -103.64775946792220        145.85981042424152     
 H        7.8721448750352456       -105.60513016153638        147.45704892585584     
 H        6.9427838190971221       -105.15875140594935        147.43759075253132     
 H        8.6935482697447011       -103.96217532860527        145.34406614754204     
 H        9.5453525219425703       -104.70643267769090        146.72732536463977     
 H        7.6640354702042641       -106.93678586622622        144.72210987845816     
 H        6.3217653346579761       -106.89685926118518        146.12083404026848     
 H        8.2575713223019207       -103.46307918206651        147.29464762461367     
 H        8.3097188526605095       -102.38875110621832        145.78110453477964     
 H        7.9471266241696545       -108.79453300339870        146.15522043219141     
 H        6.2474388558697429       -108.60135274849652        145.66710121135290     
 H        6.8127253978139892       -108.13398745697178        147.32665404286848     
 H        6.6008629797362781       -102.80163624087326        146.52609247875085     
 H        6.5114954755675285       -102.69297292362135        145.33991585299265     
 H        6.9149568549905229       -103.45101097108883        144.90225144958637     
 C       -26.409250092106610       -134.41512542129800        12.398096655216879     
 C       -25.701999960442595       -135.74916277606289        12.638892393038549     
 C       -26.982529007371781       -134.52617951864616        10.984993977273096     
 C       -24.881078908145657       -135.86509495864232        13.923606072315701     
 C       -27.286741116775723       -133.05967418290561        10.677328196088531     
 C       -24.678803986147493       -134.37914192662373        14.221715746364930     
 H       -27.350111547534723       -134.74653155672834        12.837470877758921     
 H       -26.688704104951295       -133.77719095027012        13.236574497931354     
 H       -24.617246971403372       -135.79250116605377        12.541256657396858     
 H       -26.039861851678047       -136.67480009369612        12.172904324268007     
 H       -27.517175928195392       -135.42082155864307        10.665825823365344     
 H       -25.947037869174427       -134.42137326633781        10.661151775174160     
 H       -25.845695112979385       -136.37264304440706        13.926831599158740     
 H       -24.001877148593191       -136.48166467868222        13.736667297226873     
 H       -28.156015255757826       -132.59441336116137        11.142080498230367     
 H       -27.525429535948597       -133.00460859541474        9.6152097229260800     
 H       -26.414234892154546       -132.42052252152538        10.812672398471488     
 H       -24.991922501861609       -135.14291096619067        14.933553907435204     
 H       -23.852291202150425       -134.82023295892935        14.778864996516820     
 H       -23.682842393625759       -134.62160580007404        13.851078787760819     
 C        149.59896659495118       -101.42518951120626        114.64824651248041     
 C        150.83621666266876       -100.94538271783533        115.40774549929208     
 C        149.23071016894153       -100.87769267369026        113.26894403541095     
 C        150.16170891006706       -100.35725752008179        116.64749907409286     
 C        148.35678239100375       -101.85860372685347        112.48670053000146     
 C        151.17479702283146       -100.02056579424145        117.74209128927531     
 H        150.19787521135487       -102.32452876601783        114.50472861708758     
 H        149.34647034091725       -102.39253771864122        115.08250808643658     
 H        150.98500468359330       -99.865917311549012        115.38097683082876     
 H        151.74072085931644       -101.55361966919774        115.41221213393206     
 H        150.09381475744257       -100.58319268866539        112.67193462124420     
 H        148.89640767206657       -99.843979053100995        113.35713723085141     
 H        149.60215039919859       -99.433310116386536        116.50150103378638     
 H        149.42587269235116       -101.11998908089480        116.90222574453897     
 H        147.30977631173980       -101.70591536682579        112.74854859386369     
 H        148.65455180766139       -102.87035303379483        112.76201260726531     
 H        148.46136526890365       -101.66572883653490        111.41901063577184     
 H        150.10740700551167       -100.18278655807639        117.89196758378236     
 H        150.67051510824953       -100.98151160752231        117.84398760405094     
 H        151.42682975673290       -101.01494327815657        117.37359040932800     
 C       -109.42743647537040       -83.040698842531725       -80.833420741070256     
 C       -109.79757298853221       -83.784319277744757       -82.117114053267613     
 C       -108.69173521457130       -82.566959447839750       -79.579564433204197     
 C       -110.84642752847502       -83.020905208364894       -82.926400176123963     
 C       -109.62086835804250       -82.428903434654146       -78.373126179049450     
 C       -110.18400027446887       -82.067543169642079       -83.921453894634894     
 H       -108.80085463324660       -82.219846079832280       -81.182270230223438     
 H       -109.20806589870253       -82.157088988700636       -80.234079221240805     
 H       -110.26950603639229       -84.693662108705354       -81.744991991755313     
 H       -108.95570883398716       -83.839078248819945       -82.807306928981774     
 H       -107.82751610163608       -81.902803734021248       -79.568496542779414     
 H       -108.71675914776969       -83.616418268540684       -79.286119358193460     
 H       -111.20205411405514       -83.849269430535230       -83.539133705581079     
 H       -111.56846126892860       -82.563110139453258       -82.250241168034378     
 H       -108.95478392181674       -82.396548677486052       -77.510928647882437     
 H       -110.28999103407942       -83.251605874011574       -78.121063570871073     
 H       -110.13238148860384       -81.467396834779464       -78.417391242435400     
 H       -110.95552255885428       -82.235398869524886       -84.672904342796059     
 H       -110.85959604236768       -81.214620318768183       -83.986206929088041     
 H       -109.87548832733232       -81.257166627042920       -83.260991760020858     
 C        76.841000243007983       -125.03712887406850        90.414152438963697     
 C        75.375201674262797       -124.88433190596477        90.821495835133149     
 C        76.917773015023897       -125.87677601714482        89.138637044216111     
 C        75.300293465705167       -124.30702260305961        92.235335858563516     
 C        78.411319802723327       -126.13201524368915        88.933668568156790     
 C        76.457326827165545       -124.81904668173730        93.093791507572590     
 H        76.823620262817059       -124.11149578520481        89.838825285567609     
 H        77.590708512956738       -124.29638154515973        90.692236836276223     
 H        74.863718439573333       -125.64010364307114        91.417561252829600     
 H        74.695825837475169       -124.39998746697754        90.120098003377052     
 H        76.618055295900675       -125.46491450794184        88.174977661256975     
 H        76.338693459558968       -126.78625705193872        89.298671922320665     
 H        75.453802512915047       -123.54156246699712        91.474674539221994     
 H        74.322060465242089       -124.22642496833372        92.709323505301583     
 H        78.754982511982803       -126.60820287925553        89.851950203387261     
 H        78.922144832241997       -125.17320918548161        89.022261801134277     
 H        78.636543812290839       -126.60177985305482        87.976226472931756     
 H        76.150338974721279       -123.77949364867878        92.978953022012064     
 H        75.758421306047396       -124.48413427638758        93.860253981716525     
 H        75.641307491065831       -125.38619482326912        93.541625639908347     
 C        109.64856259158245       -56.052152799390292        61.441870501145345     
 C        108.60671208490932       -55.209431519348385        60.705521901594828     
 C        109.70650956672611       -57.576364354831810        61.547994776723492     
 C        107.55861522232617       -55.034345470265059        61.804921166789683     
 C        110.53285398883743       -58.479810158180648        62.463844969963020     
 C        106.21066170959712       -54.532127149682360        61.286617162154954     
 H        110.23012894720125       -55.875424140790216        60.537079065004129     
 H        110.73058819046267       -56.153142920524125        61.357480681897101     
 H        107.93441106765130       -55.707723177080574        60.007083069508973     
 H        108.87430587671972       -54.189548433126198        60.429239310565592     
 H        109.26834283528994       -58.275297073780550        60.835532163371276     
 H        109.43648879245862       -57.490234941523269        62.600501544687859     
 H        107.53392004973969       -56.016208186969514        62.277611014554196     
 H        107.99227509788710       -54.301355477926663        62.485189373208307     
 H        111.07851358395438       -59.149206809047307        61.798815916794858     
 H        109.84899367225600       -59.194254255882839        62.922107731769621     
 H        111.08116787317564       -57.927168734781993        63.226760031121074     
 H        106.77785720162176       -53.807375086839691        60.702559232724056     
 H        105.84042704775113       -54.725865280357276        60.279893850443429     
 H        105.76620568058883       -55.527115543707879        61.310216356163934     
 C        96.187655218093212       -137.17195172771639       -147.97691221994768     
 C        95.758489143541212       -137.06009506888580       -146.51364685044194     
 C        95.498872025381203       -137.96058756619561       -149.09112591112793     
 C        96.937202658025001       -137.67288291921577       -145.75670134298366     
 C        95.970582952759585       -138.30688201630898       -150.50371577652294     
 C        97.109462312687171       -138.95777795083842       -146.56738764815532     
 H        95.688350252133546       -136.20612269778437       -148.05417052604545     
 H        96.341432143204628       -136.44406778577866       -148.77355371075143     
 H        95.021717759547982       -137.77192223687848       -146.14139693003543     
 H        95.669989994128073       -136.05599504680004       -146.09885653300060     
 H        94.451280981230298       -138.26163581071893       -149.09591928717001     
 H        96.353599088329844       -138.63676195819863       -149.10928806720975     
 H        97.092625113370858       -136.66733192311062       -146.14761178946273     
 H        96.684539818489313       -137.75568911462034       -144.69962771494633     
 H        95.475404167344934       -137.65238251455176       -151.22102201742860     
 H        95.691375557897857       -139.33640188572690       -150.72784094079066     
 H        97.038648269650636       -138.09321191303565       -150.54472283546517     
 H        97.904615704671286       -138.28080904842599       -146.25506714185622     
 H        97.575999472975795       -139.23998920215737       -145.62356570894673     
 H        96.623008431125101       -139.37089885743282       -145.68376232356246     
 C       -100.15501504838508       -94.465511353913143       -8.2253252500377414     
 C       -101.29867246410321       -93.451370075275250       -8.2628237746254456     
 C       -100.56485751236913       -95.798888952778711       -7.5992467757924533     
 C       -100.86153802033542       -92.134759342232485       -8.9057006335249103     
 C       -99.254857314881207       -96.581488579515764       -7.6955714548560126     
 C       -102.00929663445355       -91.180093235267421       -8.5753921349428328     
 H       -100.40861318124134       -94.743035271012701       -9.2484422882742638     
 H       -99.314603749164988       -94.383437732149005       -8.9145805088511967     
 H       -101.58832003285440       -93.238773276415685       -7.2337431841479489     
 H       -102.15895258015162       -93.649744045977414       -8.9020935611129151     
 H       -101.58978669342024       -96.162048197435581       -7.6749801955478896     
 H       -100.26710108222524       -95.337559544466956       -6.6576437245766629     
 H       -99.980647123718811       -92.311686716511502       -8.2885881194329247     
 H       -100.70045503865927       -92.298644455002631       -9.9712023812467390     
 H       -99.312720673088705       -97.463505729820042       -7.0577646992989935     
 H       -98.439411395400896       -95.952203590617913       -7.3389927347642629     
 H       -99.163450301810968       -96.924896677445972       -8.7260158525864462     
 H       -101.24494503045655       -90.420717677632481       -8.4104214405646278     
 H       -102.34446223850676       -90.385144324779802       -9.2415904968465306     
 H       -102.68105039026200       -91.647234722721649       -9.2955488620743729     
 C       -41.602597806843150       -78.457983437855006       -134.36482443015538     
 C       -40.885114203260720       -78.499881003405619       -135.71438092683994     
 C       -42.477202825476652       -78.817083501171354       -133.16317795441870     
 C       -40.692583612192607       -77.000991236525024       -135.94698003147946     
 C       -43.223837240635326       -77.607168445543266       -132.60060919571882     
 C       -42.062763547775496       -76.348316270164730       -135.76133715946489     
 H       -40.936088934366751       -79.008691967399614       -133.70105784796218     
 H       -41.655636175682957       -78.398886203741810       -133.27772068346914     
 H       -41.510615372095593       -78.216433664666468       -136.56084766181482     
 H       -40.136472452031924       -79.268085770794102       -135.90802233039850     
 H       -42.258180143280192       -79.597575420860650       -132.43450693810780     
 H       -43.299071730430462       -78.799379277236085       -133.87894193577665     
 H       -40.076135086789670       -77.283419059990109       -135.09356006321858     
 H       -40.135141588876550       -76.858762792095789       -136.87279292484882     
 H       -44.173600192017126       -77.933285691201249       -132.17670143480919     
 H       -43.430968895229576       -76.910010527210304       -133.41250042905347     
 H       -42.618433062704817       -77.209074777430232       -131.78629521333332     
 H       -41.482959212292684       -75.881769556916311       -134.96493209028191     
 H       -41.922923297524854       -75.466751649290615       -136.38694766678154     
 H       -42.187213718643605       -76.600576584589305       -136.81441686699500     
 C       -15.463429151131979       -79.452452483598194        117.51758246848850     
 C       -14.022601914432625       -79.286944826460171        118.00179842177172     
 C       -16.363055615113460       -80.678736368359893        117.67487507770852     
 C       -13.507203011761296       -78.383471987041304        116.88111038206516     
 C       -17.702558156857336       -81.021054163762528        117.02188759604343     
 C       -13.527588145959680       -79.294221032246639        115.65311951626653     
 H       -15.688252987740015       -78.900008088731582        118.42991982134595     
 H       -16.390760794231142       -78.915793494646564        117.71796505412937     
 H       -13.230147356742382       -79.826927018772025        117.48359478792412     
 H       -13.816311166915225       -79.254642569369580        119.07161180421582     
 H       -16.253709490448902       -81.447171326883350        118.44015356559495     
 H       -16.292457070229922       -80.839780562373491        116.59915176884112     
 H       -14.330439426811584       -77.757502530233083        117.22541250865524     
 H       -12.519445519137658       -78.011713147622729        117.15356323983676     
 H       -17.861416183105778       -81.908453497464890        116.40919975582915     
 H       -18.221132603915613       -80.258667345982801        116.44055560891299     
 H       -18.448696422202111       -81.194475265210485        117.79732477359522     
 H       -14.106833952595395       -78.380818388784689        115.78828544453191     
 H       -13.041361471256751       -78.406359177444131        115.24891051515775     
 H       -12.465237650072696       -79.051217024481943        115.67457775124862     
 C        20.305976849908514        18.283914321632690        6.1409589136264771     
 C        19.352773483606068        17.162046542443630        5.7278523553547744     
 C        21.327839031799527        18.265340097662722        7.2781895784707595     
 C        18.649178097638359        17.324986873812474        4.3801710636384721     
 C        21.599479330271222        19.670405283475745        7.8165616885273597     
 C        17.474643659190523        16.357702559541799        4.2296025799580050     
 H        20.898468941017089        17.899714369002432        5.3106315500413031     
 H        21.095127586868127        18.829313883221815        5.6233872181888387     
 H        18.320748498675009        17.506967901107600        5.6641837840950204     
 H        19.365375394863431        16.160804905829718        6.1584987979550281     
 H        22.264996507766476        17.775143824280061        7.0144785789353348     
 H        21.077163347401715        17.478411670917019        7.9895301445583513     
 H        18.221657569599081        18.306014557802342        4.1730217430883982     
 H        19.464550182026201        17.193559437369380        3.6688376377752840     
 H        22.224421105906000        19.868287047673938        8.6874178387549499     
 H        20.760775226441268        20.344106053498354        7.9920686805853896     
 H        22.139276939541869        20.247051563937816        7.0654307942728538     
 H        17.857003062995247        17.178063438951529        3.6222235881096978     
 H        18.291895078735624        16.222980755167491        3.5210476300219127     
 H        18.511240180913486        16.049674156166883        4.3662997783232145     
 C       -142.28183768577836       -8.0664657291347730        104.71259081461953     
 C       -142.96179489618368       -6.7026586073394698        104.58797409600508     
 C       -141.34858101601401       -8.1763085856705509        105.91874480182254     
 C       -144.06744777574929       -6.7202442321551672        103.53200850068869     
 C       -140.27912781873096       -9.1711714351800584        105.46668405995676     
 C       -144.70637098722881       -5.3383538890407829        103.39059715944089     
 H       -143.24774255245723       -8.1873045032781757        105.20302510332209     
 H       -142.58250466748876       -9.0052086573061949        104.24733700403762     
 H       -142.20792855567069       -5.9833529454593801        104.26799768190612     
 H       -143.55901672945501       -6.3327871446951507        105.42141345466671     
 H       -141.59989633223043       -8.0775187336358396        106.97476620503153     
 H       -140.82177836285643       -7.3395664976788204        105.46000559242549     
 H       -143.08323114845976       -6.9353940513250123        103.11592187978329     
 H       -144.72972335980552       -7.5850399416666026        103.49176545467763     
 H       -139.81202469802852       -9.0338258528514199        104.49146576268313     
 H       -140.77324208514756       -10.136992185559137        105.36113122812954     
 H       -139.50855443731774       -9.3200386144298335        106.22309349730276     
 H       -144.40991432234637       -5.9982726108369553        102.57529313373942     
 H       -145.51222661354464       -5.9804604633504317        103.03507525049450     
 H       -145.47659162945726       -5.8284177874681484        103.98616203345537     
 C       -131.06321462666372        67.238610190269696       -36.145107321879351     
 C       -131.52491804593450        67.927164593562352       -34.860364629220641     
 C       -130.31731646489118        65.926351240711739       -35.901276874218048     
 C       -130.51085865890482        69.070196472674382       -34.805568956997227     
 C       -129.51687051515086        65.693253205406464       -37.182991637132730     
 C       -130.41728550111083        69.682799163196037       -33.407783935000644     
 H       -132.07122403446695        66.886630010936287       -35.925728654998935     
 H       -131.42929703016461        67.405171729611411       -37.158192192362982     
 H       -130.87707033440446        67.749846438438453       -34.001905769006839     
 H       -132.58962191574972        68.019592736916636       -34.645975521527383     
 H       -130.85595113967977        64.985368544235442       -35.789364978817467     
 H       -129.69425802821766        66.052525406877137       -35.015851377239578     
 H       -129.48188588817843        68.816803649756991       -35.060729835760888     
 H       -130.86239007876981        69.737826039153191       -35.592205132500403     
 H       -128.60898975312514        66.295898398550221       -37.157084686685558     
 H       -130.11562059257309        66.010057657859747       -38.036943222457097     
 H       -129.21724207197121        64.645248049768611       -37.185821564927984     
 H       -129.35626480577324        69.797252351702141       -33.629674662322245     
 H       -130.39762316556664        70.764319651671357       -33.542047893266279     
 H       -131.42352627851398        70.068091144350774       -33.572494505072441     
 C        61.908326097842547        56.995314628861465        51.564804000780484     
 C        63.427425186590526        56.894514631524871        51.706290024762289     
 C        61.609834809050270        58.494092459407725        51.613885210812185     
 C        63.955405808214493        55.814692396297488        52.651309229360393     
 C        60.101858321241984        58.483278220145138        51.866335377395366     
 C        62.823541782062556        55.233073344885554        53.498920024182198     
 H        61.933172857049684        57.006121919956911        50.475140818160540     
 H        61.333579089396835        56.163243380945772        51.158081370723160     
 H        63.759615608448463        57.136499351204442        52.715840878185041     
 H        64.136145189180709        57.311770923377388        50.990948752327654     
 H        62.205612028245909        59.203277575632320        51.039249707582727     
 H        61.829479457170912        58.404488541910347        52.677758977830088     
 H        64.071262335024784        55.549100680653751        51.600529424182838     
 H        64.914215717655011        55.981533695888999        53.142173371304288     
 H        59.875560849451738        59.498670600088623        52.191708484698943     
 H        59.726435391926366        57.876939886159576        52.690660233431814     
 H        59.626794337140673        58.368165548800171        50.892085251188341     
 H        63.202420297797310        54.398846552077877        52.908482334547145     
 H        63.488623047281436        54.771422289681759        54.228745478166985     
 H        63.415818928731206        55.903319763488717        54.121878687100278     
 C       -102.81072771197930        1.6431434015612663        12.987916717499843     
 C       -101.83227702270290        2.0798088288787016        14.078695571042067     
 C       -102.46498738307800       0.27778156390600595        12.392860753163156     
 C       -102.10990321722031        3.4890345977956949        14.602954503572633     
 C       -102.33121893027062       0.63369673720625119        10.911890960402900     
 C       -100.84224260656343        4.2697080902334541        14.951417400736473     
 H       -103.46405213756080        1.2584116808914021        13.771018696473707     
 H       -103.81957230745924        2.0538539353600571        12.947302881529270     
 H       -101.48280339048017        2.9633873532749933        13.544600808584452     
 H       -100.97305698180169        1.5582894693802225        14.500428214833622     
 H       -103.30784941562597      -0.39696110113558136        12.542546869181265     
 H       -101.44989304376109        4.0598169271713669E-002   12.711337692854583     
 H       -102.71910556297186        3.9280824976210549        13.812885287522590     
 H       -102.71115119603900        3.3364005921953397        15.499226649671382     
 H       -103.32128654178254       0.96724235030755568        10.601064105048119     
 H       -102.26974378639208      -0.30133208478636198        10.355076862430746     
 H       -101.46830825460155        1.2653802428460876        10.701032890740169     
 H       -101.37236460304550        5.2219928119615808        14.966398252687043     
 H       -100.99695901951232        4.6156116837430350        15.973431846682805     
 H       -100.37873389995828        3.6023415352514090        15.677971980857929     
 C        100.74119482623429       -78.332933099044027        1.1242110032513648     
 C        100.66771403220004       -76.810343769778029        1.2432204561387086     
 C        101.96365878278979       -79.180979446566553       0.77173367436854545     
 C        99.268654518454966       -76.196612499361166        1.3049238852166074     
 C        101.45480263771773       -80.177658971457902      -0.27015714066251495     
 C        99.236233825843073       -74.715649858076262       0.92605780522341463     
 H        100.82205159846870       -78.276435192217392        2.2097386021015737     
 H        100.54210735371042       -79.152028196478042        1.8152590734821659     
 H        100.20838085504165       -76.354724280413961       0.36599532612250107     
 H        101.49517679314619       -76.183371291111612        1.5753512959502483     
 H        102.42749084117052       -79.834087118643922        1.5109293019602861     
 H        102.73871623421412       -78.514094959577605       0.39404193017380806     
 H        98.685888153138478       -76.851106332720732       0.65675637388742769     
 H        98.957836499109916       -76.322308977479963        2.3420799016022467     
 H        100.64802479262944       -80.770772626476287       0.16045356925995391     
 H        102.26786059564225       -80.850187344341592      -0.54354766102907481     
 H        101.03472709160248       -79.595304703829427       -1.0902181543681286     
 H        98.221133147798454       -74.920012544613371       0.58560744391759123     
 H        98.694585964617389       -74.202359738925537        1.7205707594353823     
 H        99.885812213441582       -74.541637857552729        1.7838851342990751     
 C        135.05434091075475        100.74255731919827       -24.203165213022704     
 C        134.98930930227098        102.14070783558788       -23.587708453032612     
 C        134.08744820734032        99.902577914078321       -23.368064018738103     
 C        135.31346871648910        103.25088132453335       -24.587846634185677     
 C        134.08418705270233        98.542542529103073       -24.066730077263237     
 C        134.14758768773731        104.22587074415964       -24.755053148488667     
 H        134.28174452667480        100.94864695843650       -24.943922865869350     
 H        135.44024157743948        100.59914166214604       -25.212428633596470     
 H        136.01893717097445        102.40063270143112       -23.833483789989568     
 H        134.78200625405864        102.44718053861681       -22.562428047445483     
 H        133.21356962667863        100.23895072277044       -22.810130701128582     
 H        134.97220865491008        99.646405016556372       -22.785248081738942     
 H        136.16614513185331        103.88559979717745       -24.346650965029156     
 H        135.59470159506600        102.69208840054014       -25.480459980434606     
 H        134.01593527813944        97.821164455106285       -23.252448028114600     
 H        134.99083649285691        98.233491537936303       -24.586897636175461     
 H        133.13954093790639        98.475211599551031       -24.606369108151320     
 H        135.03003677056074        104.17485709859672       -25.392847122385220     
 H        134.31194153951915        103.53863877369520       -25.584992902071608     
 H        133.75735641622921        103.22891877059574       -24.959763419704789     
 C        66.305007752058330        2.8977499170710317       -64.652610106639003     
 C        65.920850270947881        3.3930275802385412       -66.047229785458953     
 C        67.491763249895129        1.9615346310454125       -64.422494393352878     
 C        64.425447975555059        3.0781259000361212       -65.997733252857429     
 C        68.554886553090512        2.6215610587553524       -65.301115526239627     
 C        64.385451084135667        1.5501142809017159       -65.960028388810770     
 H        66.655465659046939        3.9224449425205723       -64.529000353419235     
 H        65.857401128179120        3.6075243812867366       -63.956931624221532     
 H        65.714473144182890        2.6587068167494996       -66.825870603258281     
 H        66.436543408878507        4.2543688456835529       -66.471790429178128     
 H        67.243539684618213       0.97379116579860692       -64.810885837310209     
 H        67.835487966620093        2.1297526295757536       -63.401878859780943     
 H        64.478976026367874        3.7369284832087262       -65.131007329199051     
 H        63.942111956179133        3.5230312956680718       -66.867529500770161     
 H        69.579639532010304        2.2580457944337891       -65.377521298895289     
 H        68.709828103929340        3.6981778725657710       -65.230480094942251     
 H        68.254237226107563        2.5512948493520575       -66.346473196365665     
 H        63.914208820111256        1.8759686898115699       -65.032747653291409     
 H        63.336131175839526        1.4825823024846856       -66.247199319650932     
 H        64.125638636996456        1.8803794362127790       -66.965773081415577     
 C       -5.1864629617451126       -100.91211515213513        68.833852674625746     
 C       -5.3693328267675824       -99.695989741173662        69.742389188630796     
 C       -3.7261418030862288       -101.19923946746108        68.483334990679410     
 C       -5.1751593470557458       -98.419070587298492        68.924089111014339     
 C       -3.6198688311090486       -102.72208379209138        68.569893428845631     
 C       -5.8214218241802262       -98.756894147108753        67.580191422713028     
 H       -5.1702547004335102       -101.26490141716860        69.865055446060452     
 H       -5.8945501720936502       -101.72098393221405        68.653730975493843     
 H       -4.5195601430805201       -99.186075996107562        70.196233169314425     
 H       -6.2463941880219576       -99.666089200031777        70.388894647087994     
 H       -2.8538237124615464       -100.57318378379260        68.670992809010457     
 H       -4.0864809123958450       -101.24230716861810        67.455521331085478     
 H       -5.6821773052952596       -97.982194429711271        69.784421560274808     
 H       -4.1103009176799281       -98.192464761824837        68.870925365129111     
 H       -2.5577372670336747       -102.94676690806651        68.472456670831718     
 H       -4.1008704257478952       -103.06419032776590        67.653541629479605     
 H       -3.9620216465412477       -103.22764116103791        69.472912363564390     
 H       -6.0940072049966671       -97.920911144937705        68.224341678740103     
 H       -5.3239007012147761       -97.788638357456591        67.635449158019000     
 H       -4.7952234166091561       -98.455375075894779        67.370184154779935     
 C        90.628271890638999        111.54126186494679        90.432318759598687     
 C        89.667659575350470        112.33909680533611        89.549978479384947     
 C        91.357075957713121        110.95743347892285        91.643033412137186     
 C        90.109542022317527        111.80289519381343        88.187969399069090     
 C        92.747986104167637        111.56715684454505        91.465698929381546     
 C        91.607272302690362        112.10875735292312        88.154904868453713     
 H        90.065806943952538        110.64024684274322        90.677074002269777     
 H        91.090352207894412        110.63128544813598        90.815104260756812     
 H        90.058024667767498        113.18040846746490        88.977344384107312     
 H        88.666702930896236        112.56738719609065        89.916133121134123     
 H        91.239320687931880        109.93817355004673        92.010923220476840     
 H        91.016580675130157        111.85519395975415        92.158968584733771     
 H        89.652157545297513        110.89330608399652        88.577259797157467     
 H        89.528630083380463        112.29660386892148        87.408935962755166     
 H        93.369815189960775        111.30456486384874        92.321545830907013     
 H        92.656504878356671        112.65263178267180        91.427288351140504     
 H        93.189067567034840        111.10417630101020        90.582978033501419     
 H        91.519336999946006        111.05767672651834        87.879956093221011     
 H        91.655887986956657        112.19252211637958        87.069216164809092     
 H        91.071848296966820        112.94133375937120        87.698574255055078     
 C        36.813632561404503       -129.71838185699090       -26.611155750026118     
 C        37.942431106842598       -130.10927868042626       -27.565542727764974     
 C        35.556056320662755       -128.91232749102844       -26.937681816326791     
 C        38.952158378654119       -129.01162822622146       -27.228711488687878     
 C        34.882281042497219       -128.34708495338521       -25.686934478457843     
 C        39.294958126796715       -128.93554745093522       -25.740578077899311     
 H        36.477360441503357       -130.73567598576514       -26.811489791152361     
 H        36.122135410658693       -130.28812985819764       -25.990415111878907     
 H        38.030033774185064       -129.46474829666565       -28.440189156457024     
 H        38.184021848742780       -131.16097286959186       -27.719403681077615     
 H        34.881330733140054       -129.10641571302443       -27.771453466480217     
 H        36.196409388521992       -128.04095569955592       -26.800717697979607     
 H        39.791992752797846       -129.24270364396489       -27.883984159145854     
 H        38.471000784393489       -128.08699275405195       -27.547516482833331     
 H        35.627907190977069       -127.86375507114521       -25.055639186244484     
 H        34.430183398432106       -129.17616452827346       -25.142568053465940     
 H        34.154967939850422       -127.58913921044267       -25.977853563180069     
 H        39.545523816859394       -129.85410801257933       -26.271203440210886     
 H        40.222732379982737       -128.62818085320677       -26.223134485474695     
 H        39.329056344113802       -127.92550704780385       -26.148935374728612     
 C       -5.1610932791816362        149.74587708345067        103.47164988328900     
 C       -4.4249175901225097        149.91039713894907        102.14168014446894     
 C       -5.3495679020847122        150.24296703468588        104.90525366486180     
 C       -5.0079678321950896        151.23927449041622        101.66003890582701     
 C       -4.5617546168897301        149.24004907193091        105.74866752086791     
 C       -4.7401190754133751        152.26223495606871        102.76441650391864     
 H       -6.2381452127240955        149.87156730276004        103.36091997058236     
 H       -5.8786741076232394        149.48207141168288        104.24855679504864     
 H       -4.7689922814684849        149.33476319784239        101.28240244036391     
 H       -3.3496482106603027        150.08687016811078        102.16912122954859     
 H       -6.2064937573463856        150.76738099886936        105.32806343274670     
 H       -4.4584512008311714        150.83906587398428        104.70858842145824     
 H       -4.2303750778607965        150.94616687349145        100.95467564435069     
 H       -6.0231306225295018        151.06742701583332        101.30224984361507     
 H       -5.0741206320901586        148.27802645463814        105.73900173004009     
 H       -4.5209166011037789        149.59755333940754        106.77756157851073     
 H       -3.5955268657798234        149.10414309915035        105.26283471168023     
 H       -4.6825793198131125        152.44218747737133        101.69091466830263     
 H       -5.6650474370642563        152.65018159838982        102.33767899865749     
 H       -5.7605883980865640        151.98301940467016        103.02667785797536     
 C       -133.20403216525159       -117.77307233933712        79.532226021092711     
 C       -133.32812369340306       -117.90600570167378        78.014078790479388     
 C       -134.40029743992096       -116.91668969858699        79.948638161741144     
 C       -131.90484389235826       -117.52256003445517        77.607772365458956     
 C       -134.49625620740764       -117.25675498974158        81.436249889557786     
 C       -130.94930959163898       -118.70420994407621        77.776587795970116     
 H       -133.75395167201043       -118.69206610308458        79.735053560211512     
 H       -132.59039263416207       -118.47166906378079        80.101004686150134     
 H       -133.38309060450848       -116.95395532838177        77.486178491607646     
 H       -133.90576399413104       -118.72519639464262        77.585875248797393     
 H       -135.30087329576315       -116.76999118490571        79.352364149185064     
 H       -133.65463061992500       -116.15027479549504        80.160036386767089     
 H       -132.06443647131726       -117.45362646189861        76.531724826670171     
 H       -131.61156710778144       -116.60717408488276        78.121734767374136     
 H       -135.00763839106486       -116.38758756398261        81.849935927068870     
 H       -133.55339326192930       -117.19622824914791        81.979799333608568     
 H       -135.18148621652659       -118.07880980353887        81.643097001585247     
 H       -130.57265994563986       -117.81786350180670        77.266073388503713     
 H       -130.71740814970121       -118.07512886779791        78.635993806391809     
 H       -131.65698410888348       -118.71869679104567        78.605494838955920     
 C       -141.35517221903581        36.905305168873056        119.66771080947005     
 C       -140.28781367635838        37.612279283579277        118.83178358596749     
 C       -142.68654149291297        37.655332089555465        119.72021212628688     
 C       -139.04350421474294        37.236064824056953        119.63676659459601     
 C       -142.73636544682390        38.507424828020653        120.98879270686413     
 C       -138.60833725515769        35.783352219341815        119.44158277945546     
 H       -141.43054235124433        36.527581336894777        118.64803240033444     
 H       -141.37812012388807        35.858523840094364        119.97073272158835     
 H       -139.90072660062739        38.525806804994332        119.28314938961837     
 H       -140.35872977819506        37.608210086399957        117.74410059838875     
 H       -143.60865103293554        37.099919083041513        119.89147334290470     
 H       -142.95893285337223        38.261939909495595        118.85653976146524     
 H       -138.31390152514751        37.982111238818440        119.32181487620593     
 H       -139.32634725386822        37.403395779542777        120.67604528586520     
 H       -143.70701070853522        39.002993950890477        120.96984796958290     
 H       -142.08773552675999        39.368881592340877        120.82982259031498     
 H       -142.43780582911199        37.959824712045929        121.88271455732779     
 H       -138.68502385138433        36.412108083086039        118.55451730969386     
 H       -137.66059442382340        36.317882538239580        119.50608725305584     
 H       -138.28756820901611        36.103624198761700        120.43286127004522     
 C       -132.95526950420881        131.47319297173010        136.49457244775405     
 C       -132.98977879461987        132.17424082597884        135.13619769070431     
 C       -131.66103582154611        131.95544394923888        137.15049476309915     
 C       -133.80018734374431        131.33060038970200        134.15164206287193     
 C       -131.95716827994801        131.93441913070248        138.65039631582255     
 C       -133.09788830655808        129.98598893196447        134.34305023952135     
 H       -133.53326221394022        132.24927062661010        136.99629738750193     
 H       -133.86553824962849        131.05718530788215        136.92636924546460     
 H       -132.29566733915021        131.91221208095291        134.33766763864017     
 H       -133.24692811490817        133.23319718798220        135.11199846150564     
 H       -131.29863090468268        132.97227686602250        136.99945333622207     
 H       -130.86064658678424        131.27697105778762        136.85528017516947     
 H       -134.37349842672734        131.84613171562142        134.92212356345067     
 H       -133.77073717835188        131.79632343080928        133.16658635892225     
 H       -132.40027927441520        132.90479797375758        138.87426554452577     
 H       -131.00668045956783        132.04212903769420        139.17295876059501     
 H       -132.47289142837096        131.02922046413246        138.97093495194355     
 H       -134.14349136606830        130.29334431323610        134.32442613903171     
 H       -133.65207162571474        130.10155948285174        133.41158672799651     
 H       -132.94794293309297        130.64137250285467        133.48509409481503     
 C       -33.766522505899374       -46.732386622920266        8.8118332984591259     
 C       -32.823738377560524       -47.641507729575665        8.0228479659714509     
 C       -35.128144781818939       -47.375905553973290        9.0758580824147241     
 C       -32.200515307049109       -46.949754081448781        6.8100368122111199     
 C       -36.516555946908376       -46.749254263457729        9.2080086357760820     
 C       -32.806378348616285       -45.556569003083851        6.9826816169114485     
 H       -33.296852098778714       -47.091633266227987        9.7275033096372976     
 H       -33.373811631433654       -45.930794871203368        9.4373961464052076     
 H       -33.366130929090069       -47.547248034984591        7.0820900408393825     
 H       -32.565011748416346       -48.688806992384784        8.1788118379051902     
 H       -35.288021951682559       -48.407600725640137        9.3891381176091464     
 H       -35.492480839503912       -46.929966126798753        8.1503866950471959     
 H       -31.501237810760877       -47.412647203785305        7.5063419630168466     
 H       -32.441984885057835       -47.513037939755115        5.9086469024387469     
 H       -36.835718928629227       -47.076386127825295        10.197563898894517     
 H       -37.288464583856538       -47.217611699755075        8.5973545790919115     
 H       -36.488394226424056       -45.663072802162716        9.2947078384810133     
 H       -31.742654420629215       -45.793800174462184        7.0003645785496840     
 H       -32.153648973156166       -45.684580473536364        6.1191670676820618     
 H       -33.011354507362590       -45.865240653396384        5.9575930570252220     
 C       -122.19723711096150        21.711488199608830        24.333888477111550     
 C       -121.49845677572415        20.674095724421782        25.213299574374116     
 C       -123.26754416109286        21.987892332790800        23.277534136014850     
 C       -120.97957702972610        19.751435125473972        24.109985372370776     
 C       -123.90969909305159        20.606273970268283        23.148658688757251     
 C       -119.96715232003829        18.737621033230734        24.643856246167349     
 H       -122.67913489876197        22.490320596159858        24.924900014414575     
 H       -122.58052813467606        22.638022054541214        23.906427313756595     
 H       -121.96967485796689        19.700928973915524        25.351140134307240     
 H       -121.01686490243745        20.991512965224203        26.138186319380214     
 H       -122.77915522642203        22.263944300282734        22.342990630490867     
 H       -124.03156936523321        22.602831280405567        23.753155435270077     
 H       -121.72536682629621        19.145598925157390        23.595339863036362     
 H       -120.59879156979980        20.455867372596234        23.370473591332349     
 H       -124.94752753631053        20.791246669012558        22.871535776741304     
 H       -123.91760252640449        20.231797022559249        24.172281953757903     
 H       -123.51384377897982        19.903152143504411        22.415843385581429     
 H       -120.28413040092039        18.637520328784611        23.605778858355336     
 H       -119.33578754902749        19.495089416944825        24.179399426989320     
 H       -119.83238178091942        19.671585235494096        25.189427266609410     
 C        115.71594383778768       -30.802352693889404        20.036798044086520     
 C        116.65091415524060       -29.829704747394544        19.317334734708286     
 C        116.00440014244549       -30.594062612798300        21.523825011704194     
 C        117.71344854005693       -30.829750821617356        18.860421814225752     
 C        115.32832833586784       -31.703797933856265        22.329588967033871     
 C        118.03437608257784       -31.828437367234898        19.972838846082634     
 H        114.88385879287689       -30.099034550494611        20.069632138391984     
 H        114.84442746018787       -31.212560574051103        19.526613095509454     
 H        117.58959989040854       -29.552955361523363        19.797312730487384     
 H        116.23163853611948       -28.971709601398636        18.791832808255897     
 H        115.55166336350278       -29.750547234717601        22.044988327271128     
 H        117.04689355247834       -30.499260711293783        21.827667265409907     
 H        116.79154737834642       -30.900511498411035        18.283194765422746     
 H        118.54672539772798       -30.461026781514317        18.262264367828635     
 H        115.51393420977823       -31.459820418082323        23.375593421863101     
 H        115.92545968511303       -32.586280311659202        22.099895596638333     
 H        114.25274129464360       -31.850946714820910        22.231814943115495     
 H        117.84314090069672       -32.067736593094153        18.926767666368491     
 H        118.93887014827783       -31.889323828682915        19.367625417012743     
 H        118.92167062690289       -31.198907141024378        20.039921386039989     
 C        34.810719789737469       -65.870802778728248       -79.243077843111720     
 C        35.307749684388988       -65.806328774355407       -80.687600389347267     
 C        34.214294528919346       -67.231360734600315       -78.881138811493699     
 C        35.812493210496505       -64.363383953823956       -80.718986700659471     
 C        34.056727517473284       -67.418250936987306       -77.371805896784878     
 C        34.907361683438424       -63.561187385068209       -79.783541066875159     
 H        35.828263931414078       -66.112812944868551       -78.936263548187313     
 H        35.205424654547883       -65.191962960997884       -78.487111839310955     
 H        34.656756946561522       -65.245778423605671       -81.358489172768984     
 H        35.822073205637075       -66.662613760876511       -81.123888503934893     
 H        34.361672503047245       -68.154047299976384       -79.442413485159193     
 H        33.281822826638084       -66.680883409893966       -78.756353960260483     
 H        36.620032520928874       -64.986186281544022       -80.334152424605591     
 H        35.939641949351476       -64.059098262616970       -81.757901266335040     
 H        34.759785061231952       -68.210435053596825       -77.114406793787381     
 H        33.115735150991718       -67.804091729817415       -76.979683143019471     
 H        34.389916727315253       -66.516578906203065       -76.857926036353817     
 H        35.989410781370161       -63.457589971088197       -79.864394330587004     
 H        35.451734262255854       -62.980089341859916       -80.527908933528167     
 H        34.652349547690754       -63.264454056054632       -80.800899468814194     
 C        41.386929504959546       -67.135290776462398        144.14457088239024     
 C        39.968592312170131       -67.553922237678705        144.53304006679247     
 C        42.458340952997617       -67.786931036275988        145.01937565286212     
 C        39.199318057221141       -66.768395789826172        143.47049303104271     
 C        43.856491058739337       -67.609594963375670        144.42644281004848     
 C        39.679880476282825       -65.319750267288626        143.56174466873568     
 H        41.376427949011870       -67.916836685337145        143.38485006393819     
 H        41.603915073816410       -66.764775028495350        143.14270493788470     
 H        39.333629420815761       -66.835768459350390        145.05186303990226     
 H        39.792157206452657       -68.557723378080908        144.91950339697866     
 H        42.268903577771781       -68.839561880715607        145.22957032138837     
 H        42.300924145015216       -67.515247638116151        146.06317071333115     
 H        39.784419422726671       -67.531060371128362        142.95658737253743     
 H        38.138843243257007       -67.004035357047755        143.55975232605414     
 H        44.437182904230923       -68.415942972803578        144.87443806970819     
 H        44.364600708652773       -66.740205897907515        144.84368045845710     
 H        43.925075031816966       -67.741216029704063        143.34659461015491     
 H        39.800859480946087       -65.529074955112264        142.49889604651824     
 H        38.737963819912139       -64.809810068795130        143.35962097169366     
 H        39.054500201825157       -65.299407777644532        144.45426115465159     
 C       -50.801384187328502        119.34873187894826        82.858668060223991     
 C       -50.312201321586336        117.95941504386641        83.268960300356426     
 C       -51.586522352853805        120.48842295181315        82.208665472074443     
 C       -49.520393199402989        118.00567081558815        84.576148593226293     
 C       -50.830721787242695        121.81490031975648        82.292714846587629     
 C       -50.601496307023680        118.56853182792945        85.499319475987249     
 H       -51.607379119148604        119.55671733984144        83.562382672046695     
 H       -51.196181215148208        120.34842016596617        83.039937865805115     
 H       -49.614217039255763        117.70135457867964        82.472516479764920     
 H       -51.142194935117104        117.29708352011467        83.514983817116345     
 H       -52.595620792060416        120.60396784078860        82.604228026277866     
 H       -51.967006311316737        120.17054677151219        81.237950911402507     
 H       -49.569825253138390        117.03494760478277        84.082840554207365     
 H       -48.610315420231267        118.58682343110122        84.427420246739388     
 H       -50.496407964006849        121.98201277024620        83.316632620618918     
 H       -51.514009360354841        122.61236461538520        82.000706542214488     
 H       -49.944545536046725        121.76818107801756        81.659778030291150     
 H       -50.762308197184232        117.53074308100184        85.791268091207442     
 H       -50.166341660774854        118.61386739456539        86.497660656063744     
 H       -49.970749322109540        119.45130804893434        85.604030354878233     
 C        137.03506215562828        102.67236140280527        66.483022854272605     
 C        136.62128587768262        103.18114793227983        67.864242041731941     
 C        136.01132885946501        102.97462576602726        65.388286673789580     
 C        135.46458989097616        102.23192470849546        68.178679050431171     
 C        136.67046117009519        103.08339698589181        64.012948688580920     
 C        135.76103514056817        100.77364213971839        67.827433888763039     
 H        137.43892754978481        103.67810760872332        66.599071644433280     
 H        138.03480480248186        102.39732435275887        66.146913801694353     
 H        136.02237195874599        104.08979687425565        67.925554460551751     
 H        137.31499186637393        103.03757449697203        68.692649331024299     
 H        135.77590596344206        104.01438542017004        65.615389995590419     
 H        135.19736169728446        102.25768237549040        65.495756102498092     
 H        135.27274332961616        102.42188756447165        69.234713570497419     
 H        134.63470246059953        102.59888278627167        67.574751378223198     
 H        137.29681161497911        103.96960957472690        64.114989144568341     
 H        136.00676308391084        103.41351605043744        63.213807732526824     
 H        137.38680922042440        102.28523044844050        63.818332000667368     
 H        136.43496751932389        101.27358809998911        68.523112788289581     
 H        135.17931309927937        100.69252977725060        68.745649673913675     
 H        134.68536607761138        100.93036267264600        67.746968195375842     
 C       -8.8799082253980117       -133.95662501469056       -34.046573001675831     
 C       -9.6466236353346630       -134.49326592989854       -32.837439010634967     
 C       -7.3746062359545750       -134.16786105074672       -34.211758240986832     
 C       -10.770722566760972       -133.52090626315794       -32.478608753206608     
 C       -7.0849235168352829       -133.25927553267337       -35.406914054500255     
 C       -11.862429542111524       -133.75935345403266       -33.522236926728660     
 H       -9.3926152427791276       -134.76661784281984       -34.565363079696695     
 H       -9.6303260931086285       -133.79623150170610       -34.820683440926494     
 H       -9.4277752622971480       -134.15686891454769       -31.824007987904423     
 H       -9.9651839490915961       -135.53555209566423       -32.853528035884331     
 H       -7.1906090169268646       -135.20877575847049       -34.477731175739549     
 H       -6.8905643613799477       -133.67538649602767       -33.368388617495391     
 H       -11.066775433405098       -133.71863186986135       -31.448386819472493     
 H       -10.534267414783550       -132.46019752934987       -32.394430284472364     
 H       -7.3972317729122858       -133.58165486087816       -36.400209068731947     
 H       -6.0006431124679782       -133.20369548608693       -35.503593393408572     
 H       -7.4143161299217599       -132.23454658717179       -35.235067884588389     
 H       -11.876460855199941       -134.77985907952572       -33.139521192798213     
 H       -12.814258846342446       -133.71859123684533       -32.992652745750696     
 H       -12.166006104394082       -132.72573661524640       -33.356172223437163     
 C        43.622555546784923        146.07024647503292       -58.196031092954996     
 C        43.016344955163454        147.06073406129170       -57.201403494266330     
 C        42.507027312654422        145.19618951062526       -58.770018973894544     
 C        44.093756429185049        146.98611578202812       -56.119064586700809     
 C        43.018568450725517        143.84056294870845       -59.258325687911750     
 C        43.915689004034796        148.12750032768719       -55.117378873612211     
 H        43.533816884930921        146.77665086622514       -59.021390589382058     
 H        44.547952784128945        146.29028499941819       -58.728312060345438     
 H        42.546395777096151        146.67418541976758       -56.297065107421815     
 H        42.461942935611567        147.92267043966848       -57.572623189229297     
 H        41.621463822805836        145.56363856908783       -59.288534662532804     
 H        42.539892033594100        144.68970179567486       -57.805399813608815     
 H        43.975580547729329        146.03420430026384       -55.601378446497641     
 H        45.116242539866477        147.01303437002906       -56.495757577539749     
 H        43.104157272041817        143.96425169351497       -60.337897608751540     
 H        42.245388541192249        143.07414377558828       -59.204525158360539     
 H        44.008417192793388        143.55889516968159       -58.899211874499436     
 H        44.567516003521355        147.26185943339689       -54.999534348012112     
 H        44.936881695280427        148.30195114291035       -55.456248127490369     
 H        44.238043014123598        148.70323453837716       -55.984972091714454     
 C        144.52831450916048        28.189540789635764        114.86505507514561     
 C        144.02404893770645        27.530294370046143        116.14917009791591     
 C        143.65070723463927        29.357401220310287        114.41367010440612     
 C        144.03348295350509        26.001667135906853        116.18158400199032     
 C        144.15473448944033        29.970664434463757        113.10687788159171     
 C        145.42617926907104        25.490078450417499        116.55106329269971     
 H        145.20337320759131        28.789914439673101        115.47492985439077     
 H        145.57271438931267        28.100651316439233        114.56601063156458     
 H        143.11476579319310        26.953199883158359        115.98104479803976     
 H        143.94599690897772        28.042344812722575        117.10823850347785     
 H        143.53106790469801        30.131477137973366        115.17168917863857     
 H        142.59896254911931        29.079639705724329        114.48281998528850     
 H        143.32185192192691        25.683713122061839        116.94354625027155     
 H        143.72698817441713        25.527364850896713        115.24927592035121     
 H        143.73673857516599        30.976922383142696        113.13558751560186     
 H        143.66922185847542        29.591213142259903        112.20777042674403     
 H        145.23130114502402        30.141206175048385        113.10243309824116     
 H        145.36530058268440        26.197049814689279        117.37845994401866     
 H        145.29056892550074        24.775258194554901        117.36269240880227     
 H        145.11036210566715        24.522080060944763        116.16204064310229     
 C       -2.4610942695925138        6.3957483798305530       -113.80229199043683     
 C       -1.6882538344718210        6.6551927204234458       -112.50875139761241     
 C       -3.9600322448898702        6.4541378579427544       -113.50629095149060     
 C      -0.89741637525371809        5.3479692641114127       -112.44888625135071     
 C       -4.7578162690003483        6.9277272137652792       -114.72164888028648     
 C       -1.5425181592857979        4.2811184006988956       -113.33404944525140     
 H       -2.4442460137590265        7.4506675731819696       -114.07608322900283     
 H       -2.0318968142060547        6.6214904739087324       -114.77847334730474     
 H       -1.9910493543441556        6.1299970359034681       -111.60289027316780     
 H       -1.3736253719777631        7.6701515436995500       -112.26591913040586     
 H       -4.0010349174860629        7.3228711940267912       -112.84923603964910     
 H       -4.2431300712402553        5.4981676330075935       -113.06574972143275     
 H      -0.32306497514982002        6.1692556916243335       -112.87749908907978     
 H      -0.50154785818996039        5.0272930172154471       -111.48527069963788     
 H       -5.8042884952693568        6.8814166290731613       -114.42023372215915     
 H       -4.6039664323218039        6.1343890951279505       -115.45311651255652     
 H       -4.5906171723601998        7.9333876553750002       -115.10738395129528     
 H      -0.64744301173991559        4.5325907127750922       -113.90299768164219     
 H       -1.0460032351822517        3.3974396216026350       -112.93319444992383     
 H       -2.0102902483079221        3.9674256424452197       -112.40083665661885     
 C       -13.258981876064432       -128.70114329159017        51.522500811101857     
 C       -12.552374299264061       -129.75195393919358        50.665562239621046     
 C       -12.316802712835317       -127.63557022466468        52.083476184052593     
 C       -13.735081743786413       -130.67363131785123        50.366305170989477     
 C       -12.335850381452248       -127.61294422929319        53.612190155885806     
 C       -13.335181622844217       -131.96463570856045        49.651302709861227     
 H       -13.364768388221105       -128.34627229021069        50.497329704129342     
 H       -14.322776920773444       -128.46444470066547        51.542845521729340     
 H       -12.370066529746605       -130.69632798526536        51.178418494755363     
 H       -11.795431545640518       -129.44489491674713        49.943861189287908     
 H       -12.504132820284218       -126.63668981774993        51.689464285755157     
 H       -11.352129747152386       -127.69044980658747        51.579001854379548     
 H       -14.191290761785092       -130.81188737038289        51.346539090586944     
 H       -14.390899050931376       -130.08217838388299        49.727409921934623     
 H       -11.897191504199833       -126.65621193150810        53.895636061268931     
 H       -11.617076491400637       -128.38454866460867        53.888035627745332     
 H       -13.291278009307423       -127.68205014449958        54.132269395091079     
 H       -14.292752938658534       -131.50285967623014        49.891968449921301     
 H       -13.782396037113898       -131.19488472733192        49.022349086860238     
 H       -12.991451500653886       -130.97090454228336        49.364165210330462     
 C       -92.972658593966159       -126.89004533409518       -25.656839312646031     
 C       -93.433901650846224       -126.43993073443691       -27.043379106332697     
 C       -92.950584842721568       -127.45570697633035       -24.236494053207394     
 C       -92.086195219329142       -126.24955561636114       -27.740003530419365     
 C       -94.177338926521472       -126.84482237657768       -23.558456041126526     
 C       -92.250629343003339       -125.98277083760287       -29.236542288561708     
 H       -92.745577104509096       -127.94763081015323       -25.791178387267074     
 H       -92.366087037516238       -127.46661024198839       -24.958452646837991     
 H       -93.758617519774020       -125.40758469346919       -27.173460953543767     
 H       -93.956529588396577       -127.16286633025696       -27.669736971307010     
 H       -92.150203841049503       -127.20102200278995       -23.541781305394377     
 H       -92.987957751564494       -128.54283118006782       -24.306238278491993     
 H       -91.469239830790471       -125.42489496957167       -27.383071014955632     
 H       -91.552049370502885       -127.16289746103621       -27.478097184243133     
 H       -94.268243261415293       -125.79847935843809       -23.850008048292580     
 H       -94.043905799659271       -126.89026005774427       -22.477608665365153     
 H       -95.050275295949618       -127.37171763401753       -23.943765665047369     
 H       -92.277577013627010       -125.12555550331456       -28.563819742483041     
 H       -91.182748229698490       -125.83481372714222       -29.075798421998812     
 H       -91.639890311738171       -126.87754924208679       -29.116253392312206     
 C        143.77631921637160        26.811820917618718        82.441011348407116     
 C        143.86600765963286        25.381379258902427        81.908438712845879     
 C        143.04223627541185        27.590215182058955        81.348735908909404     
 C        143.97911813156821        24.364607743441244        83.044758474635927     
 C        143.06897147733704        29.042777656207733        81.825378844105970     
 C        142.49646121275808        24.208365700308981        83.384107584495496     
 H        142.84610992007040        26.634662103269253        82.980849684878834     
 H        143.90305065909055        27.015887356559432        83.504212175435427     
 H        144.81492542312606        25.379664984270494        81.372106591255601     
 H        142.94575970216945        25.079968900188813        81.408043386682152     
 H        141.98139222602421        27.427690895753440        81.158221438693985     
 H        143.57035460328564        27.430786348949798        80.408643605280346     
 H        144.43262575714857        24.073173376745686        82.097395432749579     
 H        144.64939006815891        24.752478241145713        83.811825658491415     
 H        142.43538818554640        29.041023713024170        82.712322499328479     
 H        142.49276727794231        29.693968110789733        81.168081519711507     
 H        144.04453483780890        29.411621397743762        82.142128703128108     
 H        143.25482424533294        23.426895550933448        83.431959793420233     
 H        142.95046952538510        24.101838314192328        84.369312302128975     
 H        142.75497172026743        25.001867628753288        84.085268754009491     
 C        10.382871902345318       -136.49729728706129        73.149930685196239     
 C        9.1843100448135200       -135.71991521277982        73.694878007655745     
 C        11.388768886838758       -137.16042718057051        72.208511062201922     
 C        8.6956115272822920       -136.24279236683819        75.046030894456621     
 C        11.213958309871522       -138.63217182485849        72.584343610506920     
 C        7.1729961023449711       -136.33919976910968        75.146970695871900     
 H        11.129020799921891       -135.72458577140623        72.964785475793121     
 H        11.444167141766698       -136.70779094683434        73.017851688680665     
 H        8.5308147905924407       -136.58951028677663        73.764508174550812     
 H        8.6266104879678327       -134.89227645698739        73.256602665222076     
 H        12.288631497603703       -136.63457596693070        71.889406372475008     
 H        10.557441343107543       -137.19952790697079        71.504617840258945     
 H        9.2252191925215001       -137.19005700293110        75.147546269755267     
 H        9.0719236215994687       -135.52290004292342        75.772835065024310     
 H        10.242820448994278       -139.09453033539012        72.761023319135234     
 H        11.804820867948459       -139.04630068594199        73.401337328544685     
 H        11.572352944052200       -139.25869971280076        71.767571850557189     
 H        7.4929091655970677       -136.99917640609803        75.953312069451343     
 H        6.9942018852127328       -135.53921058202644        75.865406433759460     
 H        7.2033678449316643       -135.36693728912181        74.655154459343393     
 C        146.14745577877491       -121.72722557988678       -50.079735305846285     
 C        147.00885018984758       -121.85004475164193       -51.337016525687901     
 C        146.63523048179266       -122.59284224108612       -48.917571515629277     
 C        146.17160011476705       -122.74950501826063       -52.246865104089139     
 C        145.54920681518681       -122.65402964551848       -47.843025240631853     
 C        146.69388251942618       -122.81866706524798       -53.682232185754501     
 H        146.85627511940368       -120.90151596586132       -50.017455526536196     
 H        145.44624715092891       -120.93148806641607       -49.828322786919742     
 H        147.86960534579075       -122.51793231106861       -51.303448868202985     
 H        147.15919561392207       -120.94447650365674       -51.924760007766679     
 H        147.44013076020363       -122.22914709934831       -48.278852968673284     
 H        146.98340966976042       -123.59948429948990       -49.148965280625973     
 H        146.16508728363408       -123.69946858622571       -51.712424516277068     
 H        145.17641833641383       -122.30504248796767       -52.233967906758245     
 H        144.64770401430275       -122.98677694954870       -48.357487914837897     
 H        145.26014475686492       -121.62889111004181       -47.611434718989862     
 H        145.86936905972593       -123.17719263826260       -46.941972151546288     
 H        147.60064855901879       -123.00013821518780       -53.105219611696427     
 H        146.58439006353422       -123.88898657306190       -53.856953492010277     
 H        145.65820955109371       -123.06621478719906       -53.915044579923176     
 C        35.088764925011738       -30.118085786326965       -30.057333282478496     
 C        33.805670597969943       -30.814310397615920       -29.602601288691538     
 C        36.111010776997936       -29.927383646765957       -28.936401956017686     
 C        32.744435117681341       -29.930433090765256       -28.946566867482538     
 C        37.545258084218361       -30.024622739734664       -29.457286175223359     
 C        32.280557446159889       -28.849315545503554       -29.923215870705747     
 H        35.244622577276161       -31.172657619404603       -30.284680250355571     
 H        35.462500714426994       -30.009930395267677       -31.075529737609681     
 H        33.685345795207027       -30.780272497588218       -28.519797794570980     
 H        33.478957950009807       -31.789175941131159       -29.964534931210459     
 H        35.968474195839825       -30.606656783187024       -28.095942953049406     
 H        35.838813385208368       -29.064355568360433       -28.328790929755932     
 H        31.897993073787674       -30.567271723905744       -28.689521454706785     
 H        33.065114230057368       -29.447826997387185       -28.023335424619098     
 H        37.922756912190685       -29.235970364688743       -30.108148623349191     
 H        37.587300725433600       -30.904688013734329       -30.099016304914901     
 H        38.262142192473668       -30.213117765275914       -28.658132366756519     
 H        31.867178531961180       -29.044945370800736       -28.933798489100635     
 H        32.729561951932233       -28.243580563032165       -29.136081796967897     
 H        33.326608129478593       -28.559578039844837       -29.823565871422353     
 C        55.758963299663378        19.154801886493402       -92.256319031684797     
 C        56.656125825027694        18.416670852941365       -91.262285339907038     
 C        54.536998653066036        19.697410816195148       -92.998086419422677     
 C        58.007159963965307        18.964279271046866       -91.723449799323475     
 C        54.834998162091146        19.936410508409399       -94.478598694537837     
 C        58.155132513719408        18.840214045825071       -93.240207163704326     
 H        55.531363326209735        20.093320389082184       -91.750867466519523     
 H        55.372230237907765        20.034548958349045       -92.770695018537069     
 H        57.248151862737380        17.572930838210059       -91.616838521201188     
 H        56.292463146751778        18.221539569451092       -90.253437868673885     
 H        54.117678038517930        20.597269413560614       -92.548058931998384     
 H        53.654383148774230        19.114080418296158       -92.735759205810893     
 H        57.372378262612777        19.729165140713313       -91.276122527372550     
 H        58.886037860036261        18.750832581814624       -91.115079660483346     
 H        53.899784882637420        20.045692786245610       -95.027719245543139     
 H        55.378148794210695        19.070919431173426       -94.858088630548437     
 H        55.393928532647209        20.865455830860128       -94.590722026667109     
 H        58.105069326744641        19.686730729347747       -92.555369148757464     
 H        59.032231417915412        19.208638513995425       -92.708172496329368     
 H        58.818359801220979        18.365870447522333       -92.516862373700548     
 C        63.864383829211739       -2.9772024893410438        118.38964397402468     
 C        62.858083512178986       -1.8789426077635141        118.73464528482958     
 C        63.410336034101974       -4.2877563096927176        119.03317345225774     
 C        63.434577320067532      -0.49759010769262191        119.04667259581024     
 C        64.338273363386278       -5.4560469758487820        118.69870313883510     
 C        64.845866891219472      -0.90884974096481563        119.46734847531242     
 H        63.347901522664763       -3.2201403343394936        117.46102820696220     
 H        64.473147024006650       -2.9301721045883165        117.48670679851533     
 H        62.971838960762298       -1.5297705505068491        119.76091940634856     
 H        61.796382923386908       -1.9257979168761645        118.49237184149042     
 H        62.375644610247058       -4.5685015886930493        119.22988585705708     
 H        64.186036938266327       -4.0816987715882593        119.77068848121472     
 H        63.023136584126284      -0.62743624958825306        118.04569488064490     
 H        62.799671865049547        2.5710707901687169E-003   119.77799599761622     
 H        64.425027074511775       -6.0329979477889522        119.61941006877626     
 H        65.351919630725249       -5.0604963573248973        118.63419748608185     
 H        64.064687480742705       -5.9677102053834714        117.77596183741792     
 H        65.117790316673108      -0.68960583596108560        118.43483227569163     
 H        65.400785892089885        1.3233750216233409E-002   119.64034248603130     
 H        64.610723499091080      -0.49702761497922754        120.44878115537438     
 C       -118.05954010277735        144.33483407293463       -118.20671546177526     
 C       -117.04341326124479        145.20634251459055       -118.94549841231112     
 C       -119.38952822321433        145.07450217455701       -118.35457932513839     
 C       -115.78499856514617        144.36360363908992       -118.73567818414479     
 C       -120.31716142624798        144.16716130432289       -117.54583326744640     
 C       -115.77180097205242        143.95344899612041       -117.26277630658635     
 H       -118.27468017417507        143.71373887540318       -119.07622999033764     
 H       -117.84155662364257        143.28789627889563       -117.99575472961112     
 H       -116.37799581271798        145.76828449769627       -118.29010476286933     
 H       -117.32423741824928        145.69679508954724       -119.87753599568123     
 H       -119.73894275944967        145.55410821479720       -119.26890287729752     
 H       -119.08913707835926        145.59662680206856       -117.44614602544515     
 H       -116.40910743331229        143.84712550164664       -119.46495066588867     
 H       -114.93448720891244        144.88989887429202       -119.16897232859324     
 H       -120.52760386510204        143.26326765577085       -118.11748890113583     
 H       -121.25761916779220        144.68919455192835       -117.36942299291847     
 H       -119.77206525838153        143.87124156122027       -116.64950647292594     
 H       -115.87300401184761        143.16358082813673       -118.00706533007262     
 H       -114.72934572124475        143.83872777206125       -117.55980502453571     
 H       -115.18383265135246        144.86538064526900       -117.36657368593640     
 C       -123.34092395538414       -83.776717417562239      -0.44365739479484784     
 C       -122.38232200958016       -83.907822705137690       0.74029136283588248     
 C       -124.61840742330359       -84.271534910819355       -1.1226511997651087     
 C       -120.89492983410665       -84.023629178911534       0.40548637934218273     
 C       -124.35745046681305       -84.715137714064738       -2.5624286688843476     
 C       -120.02690182010809       -84.040838147784513        1.6640856541750355     
 H       -123.77617070458666       -82.779505228947585      -0.50868157901578859     
 H       -123.89268636072941       -83.418703017015119       -1.3128432209263086     
 H       -121.89899698373317       -84.868214712696229       0.91957925972133281     
 H       -122.64731010788344       -83.562178410131764        1.7394966831411620     
 H       -125.43553556131658       -83.550770337553359       -1.0926506011231207     
 H       -125.15073215495042       -84.953626543999491      -0.45971724990569451     
 H       -120.59102934772247       -84.913054215192403      -0.14648057779604939     
 H       -120.73630512738875       -83.180754285841999      -0.26719493348232137     
 H       -124.99357013036889       -85.590356151863219       -2.6945057162263590     
 H       -123.36679013619555       -85.098311144045752       -2.8071126386859300     
 H       -124.77668253988263       -83.940612525368024       -3.2046554370419402     
 H       -120.33470751640770       -83.005828090518150        1.8127792207904150     
 H       -120.43071673020610       -84.076748743890832        2.6758879853142861     
 H       -120.24507535558342       -85.088841159902387        1.8694876609485405     
 C        117.89914089910212        33.800396811630314       -21.403426594044205     
 C        118.55186571502517        32.946909305838354       -22.491245693037808     
 C        116.37243057690949        33.802085576397502       -21.487054614595568     
 C        119.49559018668342        34.000127278283465       -23.072586304810049     
 C        115.80025456083897        34.510533990024427       -20.258821491289574     
 C        118.46635087671982        35.054115255092597       -23.481996518121608     
 H        117.97053417219807        32.944526865242608       -20.732241338118122     
 H        118.42857758222222        34.022793747093303       -20.476962116038081     
 H        118.26216661466944        33.109452395154641       -23.529395092459399     
 H        118.72076783356346        31.885222484496921       -22.311264723699104     
 H        115.82789145706376        32.864982275422676       -21.371233334514038     
 H        115.91658147803756        34.204505182397661       -22.391687201098975     
 H        119.69620747288438        33.695218166313012       -22.045511320240074     
 H        120.11053518688834        33.545522050627739       -23.849295254811924     
 H        116.20117027747563        35.519667618072148       -20.353773037857440     
 H        116.25216821098297        34.217309751155966       -19.311249006989698     
 H        114.72168635356496        34.657793720682150       -20.314545815543983     
 H        119.38425751804240        35.086265296391495       -22.895043635580301     
 H        119.44843375406712        35.147185165698467       -23.945624785690633     
 H        119.00265932100535        34.413800230896506       -24.182332068106113     
 C       -125.81779205920357       -134.19842842480435       -100.35573160282826     
 C       -125.43514998523573       -133.45201138336103       -99.077339008849705     
 C       -125.81786572902378       -133.31420440706867       -101.60312440155651     
 C       -126.74742776805294       -132.79206962184827       -98.652786469333165     
 C       -126.17477187123585       -133.63942451973068       -103.05387974364209     
 C       -127.94827749008314       -133.73721760820069       -98.702748745041475     
 H       -124.73881590279458       -134.28935123210292       -100.23065760382228     
 H       -125.80700467788012       -135.27489288484711       -100.52663489227292     
 H       -124.88284660059341       -132.51760694286426       -99.177085225038198     
 H       -125.15192129212686       -134.05740168825952       -98.216302393391501     
 H       -125.38130727986767       -132.31767642702073       -101.66982317799526     
 H       -126.87079897481208       -133.55671366418443       -101.74672406885394     
 H       -126.51330717653045       -132.39604229343644       -97.664631723807972     
 H       -126.88705097140827       -131.97520250594573       -99.360835540544159     
 H       -125.23624641793921       -133.52142910225689       -103.59549486063241     
 H       -126.84376497146475       -132.95853503338105       -103.58012848688529     
 H       -126.40572943992028       -134.70426367083422       -103.08348036631301     
 H       -127.05301231962419       -133.86358990587507       -98.093954639849571     
 H       -128.04409258227142       -133.32777641072451       -97.697125878016109     
 H       -128.45768842547585       -132.82078557973639       -98.404834625935194     
 C        128.82128674041573       -83.319489926514777        32.200644108747426     
 C        129.81040258542600       -84.280633124289594        31.540572447091844     
 C        128.55874016028963       -81.908162913614589        32.727014949086907     
 C        129.32416861914311       -85.582506042165988        32.178180726928744     
 C        128.91393375723374       -81.997467562260255        34.211502514972707     
 C        128.81374436125623       -85.335114856935220        33.598077073999313     
 H        127.91792327572496       -83.189642609244729        31.604679229576448     
 H        127.91981349147858       -82.835024208690982        32.575796047364165     
 H        130.63070415125418       -84.679965354935646        32.137011136998815     
 H        130.14691680553148       -84.088439730880495        30.521788927016260     
 H        127.81938564694063       -81.187078153768468        32.378458354294068     
 H        129.59571101236730       -81.720258416915001        32.448656598232773     
 H        128.73693123571542       -85.294804812772938        31.306125597748704     
 H        129.90207978058871       -86.490215469466037        32.004450026573608     
 H        128.04057943185776       -82.435189086639113        34.694981545815097     
 H        128.96034728018222       -80.954915945586365        34.526195933168673     
 H        129.77082139163645       -82.597826378233123        34.517137710845660     
 H        127.85691268030709       -85.727380247819937        33.253547044450713     
 H        128.63088323789168       -86.129897137131778        34.321252661258647     
 H        129.77917170410248       -85.568311604013402        34.047153137332700     
 C        15.516328438952261        19.627820816578712        35.584479570680621     
 C        15.703340633709233        19.418546467367829        37.087500411536681     
 C        14.721185139370982        20.886678118221852        35.236821078434637     
 C        16.273603811321269        18.068557070435489        37.523584619082868     
 C        14.831778349104834        21.232470817327425        33.751547476242990     
 C        16.094725195760745        17.292320410436442        36.218479251287491     
 H        16.487197555451385        20.068167905439054        35.811652633197568     
 H        16.090325080153569        19.179634848218392        34.773457258297135     
 H        15.059349646549832        18.627666757029619        37.472058472742646     
 H        15.743279216662097        20.228144699303162        37.816236035121570     
 H        14.985229483528803        21.751340903362262        35.845704349571442     
 H        13.728070000735979        20.833319213460761        35.682887412430425     
 H        16.932861674274818        18.927479161990622        37.649011099711601     
 H        15.743955214347450        17.721758992988367        38.410885871486244     
 H        14.037031943477562        21.953302270575371        33.559505671140954     
 H        14.447733776690972        20.381984169084639        33.188269337464966     
 H        15.849813931055317        21.470834411464427        33.443511170052446     
 H        17.074768450246811        16.823056887744421        36.304542677857675     
 H        16.004088039707526        16.249291656180418        36.521754560081554     
 H        15.052199021883506        16.984598704779138        36.299389844777728     
 C       -51.772153795625336        32.087629270524424       -112.20614510674663     
 C       -52.119250163837087        32.670094554642134       -113.57658273902761     
 C       -52.999420958417197        31.367614359113187       -111.64647132308725     
 C       -50.840831152061973        33.464064772827911       -113.84694731834549     
 C       -52.687260394196571        30.584832720665521       -110.37067751258245     
 C       -50.717559859080389        34.195418014964410       -112.50987306508225     
 H       -51.394197465448805        31.164282706293783       -112.64509857483701     
 H       -50.748124741793781        31.825260120796667       -111.94038778601268     
 H       -52.380358878064399        33.728197983123465       -113.55816062890379     
 H       -52.647311130143251        32.059090024614783       -114.30865176700978     
 H       -53.819288787705361        30.963958735661748       -112.24059160100762     
 H       -53.045946117350148        32.198848121488545       -110.94291900695004     
 H       -50.766583964630527        32.383833654782876       -113.97219895618059     
 H       -50.967711917056938        34.056379340602682       -114.75312874807027     
 H       -52.484673366447360        29.543262597389344       -110.62005683818938     
 H       -53.559874706466061        30.637659151280761       -109.71963707185982     
 H       -51.790287359480772        30.993059900240965       -109.90496305450868     
 H       -49.839367392478650        33.568987811834731       -112.35346611548619     
 H       -49.950855746825788        34.958899066792519       -112.64163602547541     
 H       -51.128064398764899        35.069146133679524       -113.01602045593940     
 C        41.371636571696548        140.25570373758831       -76.196143917895114     
 C        41.609453204406798        140.20472651510033       -77.705675456533612     
 C        41.691693696462004        139.17168115488514       -75.166435436521297     
 C        40.887643869664871        139.02009781208764       -78.348705037480329     
 C        41.607119207144962        139.19260044646481       -73.639919619702951     
 C        41.087702985965350        139.37951210498966       -79.821334877246002     
 H        42.300966341177869        140.82519032089493       -76.207598116354077     
 H        41.714820742347399        140.91934804341952       -75.402480952182344     
 H        42.678770731153783        140.07111605025295       -77.869407841352867     
 H        41.190133058917795        140.99157437929179       -78.332685083499626     
 H        42.211119504393977        138.23656065669377       -75.375830970131062     
 H        40.672750689055562        139.26110718980823       -74.789794861278608     
 H        41.691647557946972        138.76980580898010       -77.656583747130554     
 H        39.870290739749976        138.96299750365392       -77.961623374357686     
 H        41.027580356300376        138.47296037123348       -73.061687145714174     
 H        41.363388182439010        140.12651834180411       -73.133468622511955     
 H        42.597246869010775        139.01371633839196       -73.220696840928881     
 H        41.810110452797325        138.70436870388866       -79.362631528808052     
 H        40.529788110426495        138.44436297512232       -79.869574506961428     
 H        40.021127620032424        139.42798299918530       -79.601863850289448     
 C       -59.617232233186797        104.95969698336695        18.327034950233692     
 C       -60.963195614563610        105.27361381205003        17.673062649619951     
 C       -59.865403254574311        104.29908831629366        19.683445040557089     
 C       -60.923169474958371        105.03705706062009        16.163003145637536     
 C       -58.761904047323114        104.94126563304970        20.524717241215896     
 C       -60.794021975251169        103.51810669864828        16.044885991553894     
 H       -59.553474139307170        103.98994942635150        17.833451531074648     
 H       -58.719068856930420        104.79274769007657        17.732450664142068     
 H       -61.068188252684692        106.34661010235672        17.833547888750385     
 H       -61.741056815752607        104.58494265963729        18.002856502163734     
 H       -60.138190638882961        103.25375585179246        19.828245134412938     
 H       -60.519323615760520        105.15099175059912        19.869855140799654     
 H       -61.857396527895801        105.59639578939992        16.212600640769416     
 H       -60.089312087921847        105.59727281332752        15.739989878083614     
 H       -58.929377081507134        104.54500376575611        21.526230698824055     
 H       -58.948932126104502        106.00163052279621        20.694266131759051     
 H       -57.744388402373090        104.66498607887745        20.248254708245739     
 H       -61.705115992623071        103.97957826154948        15.664029569579066     
 H       -60.436920096775864        103.87167336320505        15.077637921332053     
 H       -59.792604496433505        103.94742887710832        16.014137441454757     
 C       -74.415116987016162        3.4359731124477517       -104.49146683326813     
 C       -75.548382737720075        2.4124164235355345       -104.41477644188548     
 C       -74.893204839565257        4.8554708656953736       -104.79854833726304     
 C       -75.507771183656956        1.7435466824898946       -105.78911445387165     
 C       -73.904490830341715        5.6791935486064409       -103.97285669528000     
 C       -76.605342326407253       0.69024837580777110       -105.94319618558607     
 H       -74.665609829014429        3.3717108151352919       -103.43258832245098     
 H       -73.405173359304797        3.3421042650703479       -104.09233960127260     
 H       -76.571744885880619        2.7748921769527732       -104.51194245705160     
 H       -75.423499187883110        1.5868267892004591       -103.71412972926838     
 H       -75.936941068758514        5.1585986040228864       -104.88118173156069     
 H       -74.184102546816263        4.8114585546319262       -105.62519026411920     
 H       -75.637296595917661        2.3990675856834551       -106.65028542157503     
 H       -74.484479543384282        1.3718994435135552       -105.84252400620953     
 H       -73.893166813170225        6.6678042938874107       -104.43179072766037     
 H       -72.900871436095557        5.3441495106084638       -104.23476056078867     
 H       -74.071073818170419        5.5948594055210581       -102.89896756175224     
 H       -76.556089894989057       0.72537917777144423       -107.03151597915270     
 H       -76.097858677662884      -0.18870044657242402       -106.34070002966205     
 H       -76.334548182466065       -1.0970675310310485E-002  -105.15385318557969     
 C       -52.808969742557579       -29.199466487069468       -116.41436481849826     
 C       -53.036200837771474       -28.907529431907868       -117.89793476467250     
 C       -52.976948505035779       -30.674611444776332       -116.04889061319010     
 C       -54.366538844801767       -28.251645048227726       -118.26922622037671     
 C       -52.098949797683098       -31.088288040983617       -114.86743765098420     
 C       -55.535634740686902       -28.952890377321477       -117.57690351167369     
 H       -51.815165013092006       -29.222331792928678       -116.86149941772474     
 H       -52.289881767181726       -28.577226611097558       -115.68534819460388     
 H       -53.759613804224742       -29.511053414893812       -118.44614319408497     
 H       -52.208590911381904       -28.797596088991916       -118.59870323673562     
 H       -53.204453884799705       -31.476446951443343       -116.75131580273583     
 H       -53.615663686409107       -30.303244001071199       -115.24749860018547     
 H       -54.240545452613134       -27.321671313883229       -117.71481260855630     
 H       -54.445202959707061       -28.171786917525242       -119.35344699845449     
 H       -51.173230360353486       -31.426993140244985       -115.33264971367856     
 H       -52.445976240777192       -32.015723587083798       -114.41187648710456     
 H       -51.826338566092055       -30.283390060823606       -114.18485259486037     
 H       -54.652639310832591       -28.426133791908207       -117.21503821126764     
 H       -55.508196680066071       -27.867937698164432       -117.47578575505914     
 H       -55.644902884075449       -28.152155949087319       -118.30833007516601     
 C       -56.289303704143173      -0.90101945546148721       -89.105599657445410     
 C       -55.319936525883236       -1.6259368336500279       -88.171435315136392     
 C       -56.413924355982502       0.62280823411040831       -89.121720005739391     
 C       -55.664846841788446       -3.0730563620651994       -87.818274091870876     
 C       -57.203778389121972       0.86159798898950712       -87.834493847887003     
 C       -57.112732829896331       -3.2603700504385404       -87.363982663754783     
 H       -55.563479771281521       -1.1876644508397298       -89.866595226860326     
 H       -56.504763915114268       -1.6067412313805458       -89.907867479325944     
 H       -55.634120624596456       -1.8335781316997002       -87.148560219742549     
 H       -54.280404928450338       -1.3162527175256833       -88.063872279357483     
 H       -57.006564097679714       0.92007473722198774       -89.986885162369987     
 H       -55.422151532016038        1.0245789479000569       -88.914194140338694     
 H       -55.391335904117476       -3.6170781098004969       -88.722338272493005     
 H       -54.984026060774326       -3.3285789937990065       -87.006306544803365     
 H       -56.450270234051857       0.89523080729380233       -87.047604921150949     
 H       -57.881977340098082        8.7238145218567653E-002  -87.476006703064343     
 H       -57.669815539986722        1.8462212292444922       -87.872262471629867     
 H       -56.943274203401828       -2.7948205883191677       -88.334882968936029     
 H       -56.927780014674752       -4.1476268195188313       -87.969513712693342     
 H       -56.510805695461762       -4.0497660823382402       -86.913829794488336     
 C        148.86539995472438       -28.471630194874550       -66.555716345207770     
 C        149.26667287418368       -29.807490431055481       -67.182053662637301     
 C        150.12550645468406       -27.744255958213618       -66.085717146597602     
 C        148.58406563382050       -31.006709293078533       -66.523447211911304     
 C        149.54741494582504       -26.380303717530328       -65.707186262584798     
 C        147.18264550013899       -30.997441296745553       -67.134820022196578     
 H        148.89428828745980       -27.961122771091556       -67.518341738569390     
 H        147.94764499663890       -27.959051283057594       -66.843967516419411     
 H        149.64498069417058       -30.237389886255126       -66.254600327845139     
 H        149.97159941956684       -30.022412451031606       -67.985164514920683     
 H        150.80968075884985       -27.641774798579590       -66.928037238928695     
 H        150.41541314659943       -28.193173091357508       -65.135702641349084     
 H        149.45455574270852       -31.521525896630720       -66.930031425390411     
 H        148.60766194064416       -30.875963410169778       -65.441574421256661     
 H        150.31991463595290       -25.961392963199255       -65.062315811693423     
 H        148.71526798931714       -26.416711790683802       -65.004117337006079     
 H        149.50966851166973       -25.684843012314534       -66.545642954919913     
 H        147.36581777581773       -32.031830696143118       -66.843982553136229     
 H        146.66765701157405       -31.017923452673799       -66.174368402019795     
 H        147.29002274804344       -30.119947311712618       -66.497188138489989     
 C        15.373622755830825        67.230037161075160       -14.716309157294976     
 C        15.767277665552442        66.914379009967973       -13.272966985794863     
 C        14.888805264299267        67.951483033912226       -15.974207755482805     
 C        14.621175856117889        67.304106017292156       -12.338941062937323     
 C        13.536453411190818        68.546743294719590       -15.580951239582951     
 C        13.972373431620680        68.612772070378099       -12.790925044259920     
 H        16.276398955168119        67.670457686749160       -15.139540688387537     
 H        15.548985479010092        67.325036632531493       -15.787907549604151     
 H        16.178089392375419        67.676434554804359       -12.610694295182315     
 H        16.184221247228638        65.930349821288587       -13.058620007178718     
 H        14.644339257227671        67.398444275781841       -16.881117071519320     
 H        15.633588894573249        68.701439390559429       -16.240596320563359     
 H        14.436403578092317        66.367852534781804       -12.865617930578964     
 H        14.754317396650830        67.154679380760953       -11.267472412778583     
 H        13.690186156181545        69.483149766366992       -15.044659272025269     
 H        13.030793185868786        67.835064604358408       -14.928324823929980     
 H        12.963860950316121        68.771986650119516       -16.480675282694829     
 H        13.442389201892077        67.684766142471190       -13.005451595107772     
 H        13.509724681034013        68.430574916888148       -11.820945509131143     
 H        14.576601361819195        68.820617664921528       -11.907857215044148     
 C       -123.33205287516382        55.220308374515454        49.846670539719639     
 C       -122.73576592178476        56.189181107905824        50.868222504362009     
 C       -123.39915449162254        54.775773131299871        48.385257938635363     
 C       -123.46269930279715        55.742536258246361        52.137047604682451     
 C       -124.84261909535178        54.674644615014799        47.891270000385774     
 C       -123.23956764886979        56.676137425553065        53.327191328185812     
 H       -123.09094083450195        54.182820027218732        50.078150408660974     
 H       -123.81290473529864        54.370427801731552        49.362331223666750     
 H       -123.11085125269310        57.212264900417779        50.894879119551462     
 H       -121.67963098944098        56.085930489054114        51.117257286178479     
 H       -122.86716020064122        53.845175439001864        48.187596624737949     
 H       -122.68775348218239        55.348364058351770        47.790154368109079     
 H       -124.49802172575666        55.655040571061107        51.807575414344853     
 H       -123.05417048097169        54.756038893337212        52.356198696058151     
 H       -125.55839018470924        55.493861753853004        47.959496759565361     
 H       -125.45234130286522        53.825663192379686        48.200412995429474     
 H       -124.84516833074385        54.514810713088970        46.813055436636340     
 H       -124.26107875198781        57.054236486146493        53.286495953000468     
 H       -123.84458791286971        56.256681957253491        54.130999498651086     
 H       -122.64984836172897        56.038328812428986        53.985622286990036     
 C       -136.76967510141401       -34.081824276144090       -96.578526949800832     
 C       -138.00046509271621       -33.708417061727033       -95.751747626443247     
 C       -135.71262609323679       -34.852788290925233       -95.787260377866048     
 C       -138.38608682139832       -32.422643845491280       -96.483815930334856     
 C       -134.57723533192976       -34.923503001170687       -96.808890638316939     
 C       -139.71474664535185       -31.986315123546412       -95.865656350572607     
 H       -137.49754117054275       -34.885724317321795       -96.688325499660053     
 H       -136.68396700122648       -34.120746599668330       -97.664454756626597     
 H       -137.92317548603305       -32.888677076191911       -95.037497899131822     
 H       -138.63624487059110       -34.497123561606990       -95.349471461758625     
 H       -136.00066054955428       -35.580016419624556       -95.028132311630031     
 H       -135.39423306758695       -33.869475625795474       -95.441107083094181     
 H       -137.56739858707411       -31.712845209955105       -96.365344751935325     
 H       -138.44782553159200       -32.441746204488354       -97.571898419402771     
 H       -134.79053753180210       -35.828303035961881       -97.378046992831386     
 H       -133.63104115600748       -35.197857395453880       -96.342472080606441     
 H       -134.54565903557150       -34.105133979328691       -97.528178541741539     
 H       -139.11446361035834       -31.618048760224255       -96.697605918295054     
 H       -139.77753192869389       -32.420808402613240       -96.863340448448028     
 H       -139.50880110396545       -32.991054343133762       -96.234689546535691     
 C        108.63609576818810        78.698856340517509       -94.006737362996418     
 C        109.17502242526145        77.331933487536730       -93.583746872828755     
 C        108.12354874292880        79.580857871415731       -95.145688532601980     
 C        110.21460849603616        77.801234702244926       -92.565484543502663     
 C        106.60427893811598        79.744919142983548       -95.093302361312240     
 C        111.12045655330455        78.878175875073481       -93.163379119256192     
 H        107.71123279225621        78.951830382022465       -93.488343085342095     
 H        108.19571071119861        79.695869225090789       -94.017977867791117     
 H        110.15404576205098        77.019221833462382       -93.946823659078802     
 H        108.49949981162055        76.477395404431903       -93.544583225837073     
 H        108.43188522679419        79.239872305698242       -96.133998941819016     
 H        108.73812144354639        80.477481113581788       -95.226107449665975     
 H        109.54488814214598        78.347429300687892       -91.901221018403533     
 H        110.72992889924200        76.938055269020339       -92.144217194103859     
 H        106.39158142201090        80.523082011860311       -95.826325008230924     
 H        106.16530776083923        80.147511287790678       -94.180436609940102     
 H        106.18062873474119        78.826634415035485       -95.499963992364115     
 H        110.82709149325107        79.256266435447742       -92.184050574093803     
 H        111.99523294408267        78.591026861502826       -92.579931013836571     
 H        111.55598746874136        77.901232358148789       -93.373126952716802     
 C        120.44566791085937        5.2976789287024522       -108.54468985013554     
 C        120.54177833358192        3.9224333624234831       -109.20597904691270     
 C        120.30024968948554        5.2161883478663560       -107.02480375622045     
 C        119.13556622077488        3.7934433260228126       -109.79229810779330     
 C        119.71646204936310        6.4950582972013464       -106.42353443251618     
 C        119.04785896376268        2.3823524563940635       -110.37451026389945     
 H        121.53479726010646        5.3411289465914908       -108.54775065922223     
 H        120.83979452936789        6.1839295584068950       -109.04200671449914     
 H        120.46729378728729        3.0362345850637018       -108.57573800297327     
 H        121.19974005654134        3.8127716954062021       -110.06804670966719     
 H        120.95528643245240        4.6558235642847121       -106.35770691437645     
 H        119.24923489639623        5.0161211078155228       -107.23322886089407     
 H        118.44186754578502        3.7842125618249463       -108.95158599952363     
 H        118.88019776221537        4.5271516859808747       -110.55686269247229     
 H        119.22999465280169        6.1730330607695176       -105.50280151667152     
 H        118.90985199544313        7.0081583635775342       -106.94718369385542     
 H        120.52765097426114        7.1649445078298033       -106.13835903885085     
 H        118.32683035946295        3.1865143910612876       -110.52127974365143     
 H        119.22870869579775        2.9706094504189808       -111.27414744641790     
 H        120.01014044432716        2.6840626862205568       -110.78813482269207     
 C        146.55039198652577       -8.3053126812898874        50.057016938056748     
 C        147.27376454030949       -9.5055258946764383        50.668622476842287     
 C        145.51626340782954       -8.6893359433437922        48.998269913475951     
 C        148.25559124484846       -9.2065913453991435        51.801978274995058     
 C        144.36252502846577       -7.6873430034388894        48.945935408951641     
 C        148.61815038726343       -7.7379539455241151        51.579501324106459     
 H        145.99010127906439       -8.6139266279301676        50.939588041881230     
 H        146.47524023442762       -7.2961551761648149        50.462051908491993     
 H        148.34879790175023       -9.4662568757314265        50.492948827835335     
 H        146.93635248363688       -10.537206690605123        50.569184842262906     
 H        145.13063302045893       -9.7024157532986575        49.112543789159353     
 H        146.01824275059749       -8.9492525788286006        48.066304168942729     
 H        147.42445701153054       -9.5749582223348391        52.403328125819939     
 H        149.09629180564764       -9.8968136625821970        51.731865702583853     
 H        143.76412292588697       -8.0518117396176123        48.110963927121304     
 H        144.63161687092992       -6.7011079022607563        48.567742381889552     
 H        143.68784069457337       -7.7679729197571561        49.798226389398216     
 H        147.92618131312869       -7.5109004123339229        52.390504059289128     
 H        149.25354667948577       -7.1638127625078001        52.253840597141483     
 H        149.64656436971327       -7.9739076584288675        51.306022778978125     
 C        135.99288809522429       -60.514190212597534       -49.705083157883621     
 C        136.12870581802687       -61.630939980452418       -50.740585194540536     
 C        134.71609019220870       -59.786420935399121       -49.283206492844329     
 C        137.11255614211240       -61.292290081567650       -51.860940386440120     
 C        134.04535013486506       -59.089797894528061       -50.467548193420960     
 C        137.43468202043778       -59.797626159582194       -51.868402211160181     
 H        136.00815518478981       -61.349205618404454       -49.004643155227285     
 H        136.22267212353498       -60.441934215360220       -48.642031693752557     
 H        135.83345720183294       -61.011550655914775       -51.587512081532005     
 H        135.61684682969727       -62.590868929036766       -50.808678829873209     
 H        135.13715708064271       -58.947571322893175       -48.729009778431788     
 H        134.11205637418462       -60.491565591914203       -48.712229959711223     
 H        137.53884984496023       -61.960702034805742       -51.112876865613657     
 H        136.98491143089458       -61.782235574029734       -52.826217676266907     
 H        133.49294978889938       -58.253195890871318       -50.039703796213551     
 H        133.30675289094222       -59.816298472085791       -50.806326966853305     
 H        134.66693573178466       -58.676851509793977       -51.262033326289419     
 H        138.37256044557617       -60.226867030991073       -51.515930539185142     
 H        137.84559944983150       -59.712151883527461       -52.874354988938279     
 H        136.63510638636754       -59.755861943009116       -52.608020046174296     
 C        93.746913861656822       -59.166949003551636        125.41990361488105     
 C        94.197134257639519       -59.113813643176009        123.95965732451803     
 C        92.442005175329896       -58.370853668271351        125.45577063498057     
 C        95.577156454813789       -58.480145959456728        123.78120597344474     
 C        92.085413957817565       -58.467548647313038        126.93945993015160     
 C        96.064200187370147       -57.850300586667636        125.08655043652369     
 H        93.205435993708392       -60.105221090951829        125.29929175446379     
 H        94.140511900502588       -59.928219128898832        126.09343788083515     
 H        94.326748159007948       -58.031733921127149        123.93956474246583     
 H        93.677595139809910       -59.424922228925290        123.05335134169611     
 H        91.694724875333620       -58.889389270722788        124.85511017380939     
 H        92.704638056414723       -57.323932073735833        125.30385226912622     
 H        96.157985200577201       -59.397871784945501        123.68891723229260     
 H        95.565791762769138       -57.815590214880551        122.91729824356021     
 H        93.024621875025360       -58.290935144540413        127.46366985460052     
 H        91.766391478510428       -59.426530918193791        127.34772170082610     
 H        91.413478234163051       -57.651390611237261        127.20495655795236     
 H        96.387771635878735       -58.858684999420973        125.34454721342316     
 H        97.139324351472595       -57.705387467423421        124.98068162669037     
 H        96.275757905556176       -56.952032222481414        124.50650107443521     
 C        135.70769135059015       -15.752083571754605        24.199422463337179     
 C        134.73313286854014       -14.641965637064896        23.804815144417901     
 C        136.98599720188218       -16.543342560826883        24.478141440807619     
 C        133.42279198924464       -15.394690148002217        24.037738894741931     
 C        137.46867854177501       -17.883218132328260        23.921730297306635     
 C        133.00961299815654       -15.377993177646605        25.509759714063545     
 H        135.93710572204887       -15.535209310912501        25.242703160703901     
 H        136.15077119483271       -16.479367201028058        24.879745035034240     
 H        134.21995491852880       -14.711421267331604        22.845688298168042     
 H        134.98656965767913       -13.603863597251506        24.019789399683741     
 H        137.69439519650723       -16.335175055352646        25.279975959494404     
 H        137.20853051538879       -16.515039405249833        23.411474726238382     
 H        132.54836026498100       -15.019971874545837        23.505709445563557     
 H        133.63516529787196       -16.377544161055461        23.617030424887730     
 H        138.51133143562993       -18.092399087364171        23.682527223556370     
 H        136.95627234682289       -18.318491440265895        23.063780977650250     
 H        137.28578263857813       -18.666784052780532        24.657035365063013     
 H        132.54140758960187       -14.397841705301269        25.419279144088769     
 H        131.92298165757634       -15.462791542557406        25.497862189142950     
 H        132.68365138334039       -16.408994761042717        25.647181518833317     
 C       -124.53539584413757       -112.04291849015756       -136.73347112858997     
 C       -123.65429454224362       -112.71147941565394       -135.67775919130668     
 C       -125.15764493726553       -111.01596067972586       -137.68004638798288     
 C       -124.38354148900019       -112.95505510210293       -134.35612736143986     
 C       -126.63583987915391       -111.39600204731491       -137.58867136482019     
 C       -125.76922435116452       -112.30894758612581       -134.37252945689639     
 H       -123.95338485364175       -112.13397207141449       -137.65057116744907     
 H       -124.96238349235914       -111.92284720330062       -137.72914402438718     
 H       -123.77196867353236       -111.91813806431786       -134.93961130311828     
 H       -122.60450408926224       -113.00156255782557       -135.72125400049720     
 H       -124.72309687091297       -110.69596588350311       -138.62707927757984     
 H       -125.25031010789853       -110.39475313947230       -136.78919601687028     
 H       -124.18076914781616       -113.87640345117040       -134.90211316462904     
 H       -123.81128532571775       -112.89016545440522       -133.43070190444598     
 H       -127.13645751368422       -111.63518575141060       -136.65044271289855     
 H       -127.02788358413170       -112.16974595297749       -138.24876387313739     
 H       -127.24621713308306       -110.55425762796786       -137.91578902052117     
 H       -125.65592417300051       -113.27578017739552       -134.86293514365227     
 H       -125.81471797226499       -112.96750018064063       -133.50515480965848     
 H       -125.25093443608543       -111.97805740021496       -133.47253655529465     
 C        5.3602456310013338        112.69960042466040       -109.04732407530645     
 C        5.4104410606851516        113.20361039194358       -107.60465455105522     
 C        4.9668037434972430        111.94924129714963       -110.32011847401448     
 C        6.6630153824076759        114.07692443789438       -107.68352863852252     
 C        3.5872578803740960        112.37516706963524       -110.82338937464242     
 C        7.3599667727683524        113.72720586983608       -108.99874599038098     
 H        4.6149302266124801        113.34025627905534       -109.51866794041332     
 H        5.2603392518386736        112.80923788744298       -110.12718442716042     
 H        6.1790577566538074        112.73043024773253       -106.99356622197726     
 H        4.4875301088991231        113.47188908153278       -107.09049323102874     
 H        4.7694911662755732        110.95675952720325       -109.91496704653778     
 H        5.7996745980316744        112.03204157212816       -111.01838081492399     
 H        5.7996060942032965        114.74165102637114       -107.65590880852317     
 H        7.2009697413105558        114.00430197632994       -106.73831380198433     
 H        2.9536773521512547        112.41834692437598       -109.93749372788496     
 H        3.1424351344373793        111.51574600947281       -111.32501492605127     
 H        3.6236907772838602        113.23537943581424       -111.49182586074434     
 H        7.1482129338760139        114.77822106716594       -108.80220766773412     
 H        8.1911732054888091        113.96684752787723       -108.33559614404041     
 H        7.6347424759903442        112.97570347352487       -108.25858219262193     
 C       -10.354401085021337       -127.64536050703910       -119.65340397401759     
 C       -9.5352406082092038       -127.65724422898582       -120.94440198181108     
 C       -9.5331605304350262       -127.29734775480004       -118.41151348161722     
 C       -9.1565873893492746       -129.08007459011384       -121.35673252793481     
 C       -10.598024997391319       -126.64175766214817       -117.53168029572825     
 C       -8.4062563580212437       -128.96750653231405       -122.68420108718183     
 H       -10.408329820787118       -126.64715770518067       -120.08789547309264     
 H       -11.437244503329728       -127.57175105925350       -119.55274701757436     
 H       -8.6121653853246745       -127.10853558568081       -120.75745028336887     
 H       -10.014231290524116       -127.35573455311709       -121.87593824743639     
 H       -8.4698011024960884       -127.07047516502521       -118.48829609779719     
 H       -9.8071412878868340       -128.29539022446860       -118.06954009987909     
 H       -8.6660489769097051       -128.87143033647718       -120.40597518100530     
 H       -10.038491944758288       -129.71531192669806       -121.27416205647897     
 H       -11.295781638931635       -127.40218909796623       -117.18099585130889     
 H       -11.151465244567463       -125.91568144303029       -118.12717777278004     
 H       -10.085651322830786       -126.23657821662984       -116.65909628544446     
 H       -8.0396103497398972       -129.99207853994974       -122.62156841716448     
 H       -8.9477036000356254       -129.61965181360341       -123.36950495625975     
 H       -9.1266255218020405       -128.41255042519731       -123.28519357740392     
 C       -145.90556280131960        4.5345904404994961       -59.115967838330555     
 C       -145.09969449527702        3.2629963748769306       -58.848637044716568     
 C       -146.08437862277157        5.7356689189268284       -58.186841190249496     
 C       -145.77188506936801        1.9388996649158676       -59.213011487801580     
 C       -146.46075610523860        5.1262278327738073       -56.836003416443340     
 C       -145.73408175152790        1.7266871023802739       -60.726741204021778     
 H       -145.01141415440009        4.8201905123685576       -59.670071442196878     
 H       -145.85856111306887        5.3077447331401455       -59.882859834759337     
 H       -145.56760637468557        2.6360284386913944       -58.089644473091823     
 H       -144.01914121908979        3.2436239854400957       -58.706759380139196     
 H       -146.88554803664474        6.4570469048302801       -58.347593733870639     
 H       -145.14587759143126        6.2897122523488598       -58.168083838161664     
 H       -145.21256774596966        1.1402284248827042       -58.725786381048444     
 H       -146.80477244641438        1.8481835556453523       -58.876835513899898     
 H       -145.54199662697386        4.6659912410316524       -56.472460864476631     
 H       -147.16616924712667        4.2958137691747931       -56.805923614259598     
 H       -146.71668812864289        5.9227928677162529       -56.137374071986862     
 H       -146.22851136732609        2.5443765758979833       -60.202314669422123     
 H       -145.11291878444041        2.6163612271318986       -60.623124191426818     
 H       -144.66319007432989        1.7692154880412971       -60.528039596743106     
 C        73.975828048843454       -93.875702888416583       -144.10155169212948     
 C        75.086760133181571       -94.923107436049904       -144.18288199143547     
 C        73.688587377155073       -93.209898692558923       -145.44767147689740     
 C        75.772383294573999       -95.121405337076951       -142.83068388990068     
 C        74.722860774604143       -92.133160502171535       -145.77745104830049     
 C        76.297592357449815       -93.740916369779583       -142.43540348452063     
 H        73.250529627409080       -94.680529733742361       -144.22111741152005     
 H        73.235075516655783       -93.909917845039701       -143.30266806471900     
 H        75.811189530051735       -94.459072791166093       -144.85219051330614     
 H        74.689441935591432       -95.915111879168705       -144.39774337995649     
 H        72.681127048911236       -92.801249042067383       -145.52596044574327     
 H        73.475292590316911       -93.969737120032860       -146.19950320446162     
 H        75.041059082321610       -95.549949163787105       -142.14539925319610     
 H        76.554640453334656       -95.876110129734002       -142.74947745554960     
 H        74.230390504775741       -91.460376442076353       -146.47954400746823     
 H        75.484524753030541       -92.674079119425869       -146.33903369354442     
 H        75.114848927926232       -91.509725967914974       -144.97384998820334     
 H        75.256541525727997       -93.970342422344913       -142.20807821018136     
 H        76.427137624359261       -94.324114468296585       -141.52370289221855     
 H        77.132217778707016       -94.441556209679035       -142.41082309559988     
 C       -71.499055662907054       -83.771360577075455        118.47199252167536     
 C       -71.440623995574569       -83.321955844699701        117.01169731554609     
 C       -70.660435230177470       -82.905036164413275        119.41222588730007     
 C       -70.366778118104151       -84.081744284313558        116.23232740650334     
 C       -69.188929890783982       -83.320229943349375        119.40094385598691     
 C       -70.356872883521447       -83.454536002924840        114.83792696120926     
 H       -72.319505900756809       -83.072636392712113        118.30845070990200     
 H       -72.245476409242883       -84.411643542861199        118.94209228842004     
 H       -71.116512152949525       -82.284096485281850        117.08850532106770     
 H       -72.353564896350278       -83.579413691400902        116.47471094665944     
 H       -71.037177671924979       -82.880353727867444        120.43475016352583     
 H       -70.902130290509248       -81.852865495294765        119.26182506786843     
 H       -69.430360741446123       -83.995075006947218        116.78342710544023     
 H       -70.437346944328397       -85.167828175433300        116.17281363526915     
 H       -68.769397215337690       -82.803194538247126        118.53794523834841     
 H       -68.954513118209817       -84.364324441366108        119.19354213144514     
 H       -68.731845818719123       -82.860113611035004        120.27699587288485     
 H       -69.284058579282700       -83.344284127252735        114.99608490352534     
 H       -70.013495034364439       -84.227770996064322        114.15068662018675     
 H       -71.170105925889345       -84.136244969296555        114.58887899775782     
 C       -128.05062245810777        41.581067092761181       -121.20282796947262     
 C       -126.90660025911816        41.464568728300456       -120.19511654906013     
 C       -129.21876308107971        41.249657512123001       -122.13205136106831     
 C       -125.56529981322295        41.233369709809089       -120.89175210571393     
 C       -129.16797269822152        42.039486757288778       -123.44026818059234     
 C       -125.24311250205416        39.739303106925355       -120.93419409752958     
 H       -128.93507509592953        41.698380747484073       -120.57666420839244     
 H       -129.00247999809039        41.960491638696915       -121.57445181935448     
 H       -127.10674272019965        40.598999185022798       -119.56358480641295     
 H       -126.62277224426072        42.342847751476484       -119.61531693844985     
 H       -130.22020346307289        40.964917309437823       -121.80934376901050     
 H       -128.49658866964666        40.625574262581551       -122.65843927766693     
 H       -125.65413976122285        41.609211406894332       -121.91104126260363     
 H       -124.72343778647827        41.755857462848880       -120.43746707570091     
 H       -128.19842815540153        42.350811118476436       -123.82906167691121     
 H       -129.66673081260492        42.990336154702419       -123.25258281381265     
 H       -129.74301025566120        41.561169336652441       -124.23313907950286     
 H       -126.05692525341448        40.345598735791675       -121.33195578713000     
 H       -125.16221609152834        40.267574724731794       -121.88418612136469     
 H       -124.56705079113397        40.523993512628522       -121.27375486746743     
 C       -100.54210866439880       -144.38445463978715        89.622663491136024     
 C       -100.61713056205467       -144.15589881727621        91.132622072200363     
 C       -99.360074833149284       -144.93146716976744        88.821780078669022     
 C       -101.58109847857823       -143.00514548840226        91.423093445162536     
 C       -99.503283459603537       -144.29538852840068        87.438762945000803     
 C       -101.08987622544855       -142.00255155781633        90.378417845570766     
 H       -101.07682747706714       -145.30060193693609        89.873362375411645     
 H       -101.11986619514286       -144.98923355410363        88.923708024238564     
 H       -100.01747342022516       -143.39204923631817        91.627642425122048     
 H       -100.77205501594671       -145.02246715286194        91.775395504750549     
 H       -99.284984300531420       -145.99232735125034        88.582955666499657     
 H       -98.443107573149859       -144.64801172356306        89.338427052838568     
 H       -102.04137936064377       -143.96588876166754        91.192412364252121     
 H       -101.51275122917161       -142.73314705447382        92.476395637594834     
 H       -98.507367134250103       -144.32941827350879        86.997070140039980     
 H       -99.715797744203869       -143.24933929257892        87.659486101389220     
 H       -100.17953641995666       -144.74815646193483        86.713653896458695     
 H       -102.12745839198723       -142.18901905015198        90.655461285406005     
 H       -101.46031987442794       -141.33328868542944        91.154921990660441     
 H       -100.54819464277863       -141.63046026468237        91.248032196203198     
 C       -102.80744427434085        66.479291490502902       -124.96649977540467     
 C       -101.88775115878518        67.055001980456652       -123.88920552600676     
 C       -103.23393228063526        66.497198021818846       -126.43470560820698     
 C       -100.54002064123354        66.400962480722157       -124.19530304579038     
 C       -102.63946891766066        67.790226701871774       -126.99375045671336     
 C       -99.493302857141444        66.845412869702571       -123.17320389174817     
 H       -102.66662736166316        65.405876613615376       -125.09319277932633     
 H       -103.48841491454517        65.848405823460638       -125.53778109797510     
 H       -101.96669837146167        66.650183085281668       -122.88025109937618     
 H       -101.68025715189441        68.124100145748699       -123.93476170802592     
 H       -104.28377831778432        66.584080677003939       -126.71466043783512     
 H       -102.84329145081871        65.597403032474006       -126.90996214907251     
 H       -100.67370514878779        65.321537976094234       -124.12409115135998     
 H       -100.15523151361847        66.603711179337139       -125.19476807851713     
 H       -102.96431557483297        68.243582023385116       -127.93025647018682     
 H       -101.55649008025239        67.889525255795391       -127.06721265862346     
 H       -102.84918644994734        68.610643003990944       -126.30743005265660     
 H       -99.092168956337559        65.837941393213171       -123.28362472383066     
 H       -98.593125879556737        67.092371343935696       -123.73604748307685     
 H       -99.573951184032126        67.840843133441510       -123.60991251510183     
 C       -141.57345428545648       -138.27398216330462        112.88842220502428     
 C       -140.99466096445786       -137.58519103093207        111.65213502630147     
 C       -141.37245237924586       -139.31309767793601        113.99190676810255     
 C       -142.17463060886246       -137.74891270728355        110.69364259182100     
 C       -140.26322865024045       -140.28075970407673        113.57827160961394     
 C       -142.74939694445476       -139.14432957033100        110.93919581205546     
 H       -141.78339663548240       -137.56595080583432        113.69011779760170     
 H       -142.16039651718603       -138.52512175004637        113.77189704736485     
 H       -140.68411903586644       -138.27109365856464        110.86397176957408     
 H       -140.39556480153541       -136.68151749700331        111.76419724736742     
 H       -142.14569446073719       -140.05972605712387        114.17285629797493     
 H       -141.18665305426711       -138.94778816346005        115.00192042895004     
 H       -142.40266895906316       -136.91443113882343        111.35677072643087     
 H       -141.85806118585830       -137.45120796356056        109.69401479038811     
 H       -139.91544002917394       -140.83410741930899        114.45059566827160     
 H       -139.43953379174062       -139.69577803929383        113.16909772831588     
 H       -140.65979173057875       -141.00378464871244        112.86547944290409     
 H       -143.68125501335496       -138.62165997527970        111.15496646846313     
 H       -143.29875305222632       -139.41818015698519        110.03846626841604     
 H       -142.06765964919745       -139.49792912160632        110.16569623105066     
 C        84.156961236171981       -3.6675802475315766E-002  -40.527494957848731     
 C        84.534256697787526       0.23062216788959788       -41.984903928633905     
 C        82.673832322015386      -0.35005718865272339       -40.327590868229322     
 C        85.563009100987699        1.3479638900219222       -41.808674053492808     
 C        82.502103257675628      -0.36183652334475180       -38.808310934013029     
 C        85.959165655625526        1.8054856287485794       -43.212801810898007     
 H        84.508313845550774      -0.99574591557865788       -40.908068039407574     
 H        84.821903031533353      -0.30235453546898106       -39.705687646889487     
 H        83.852959777694920       0.82001764493856300       -42.598538568230602     
 H        85.075847355331859      -0.54586325280068171       -42.525135279407529     
 H        82.021960739152078      -0.95089764154373735       -40.961747168284191     
 H        82.542618321516201       0.73099308916677230       -40.374635558625393     
 H        84.634793670530541        1.6787934307098753       -41.342768642245382     
 H        86.323583111358900        1.0158212230451451       -41.102056437597859     
 H        82.651253164145444       0.67644311214339281       -38.511950359313524     
 H        83.247074557338024      -0.89122931822116935       -38.214289853643940     
 H        81.451072031131559      -0.57942086121943615       -38.618336101231726     
 H        85.535265863303138        2.6856359064534621       -42.729330628303593     
 H        86.873686960601532        2.3021329518926827       -42.888622538374406     
 H        86.752445751799030        1.1716404783875831       -42.816510274800365     
 C        74.502307544037095       -34.597196583111014       -2.0861933768073184     
 C        75.316578370801381       -33.392400794978350       -2.5587091221305789     
 C        75.167071393462010       -35.885064735385178       -1.5990326718104768     
 C        74.635294108660617       -33.136235440380347       -3.9033547810484790     
 C        74.021151331427859       -36.884321685097760       -1.7608779684803966     
 C        74.292664710635677       -34.506032370337358       -4.4899572156270704     
 H        74.316597005757217       -33.964791026656250       -1.2180489069853004     
 H        73.519685292488163       -34.202516771454633       -1.8277724326570741     
 H        76.039418014688081       -33.622144348879559       -3.3415378063376666     
 H        75.611214579398435       -32.622425196272552       -1.8456684055076762     
 H        75.955319261625746       -35.858930101698412      -0.84664826248087488     
 H        75.472865030958488       -36.005697050179414       -2.6382814945485733     
 H        74.019236024168663       -32.677911304847242       -3.1297196469878692     
 H        75.237762350719649       -32.428030708201533       -4.4721940668475533     
 H        74.456629949596547       -37.850863069710108       -1.5073902746709313     
 H        73.610967245949595       -37.065860282405097       -2.7543027342289994     
 H        73.251110536720546       -36.676609590029898       -1.0179157379791528     
 H        73.245534623684080       -34.239011468226707       -4.6324997217422954     
 H        74.076777429094179       -34.315758638413051       -5.5412842696775177     
 H        75.163373291925168       -34.687406182243258       -5.1200922011046774     
 C       -50.906557353368626        91.735859841883226       -12.586540276310698     
 C       -50.286346926360025        92.839617644076711       -13.443802600967533     
 C       -51.030720288253050        90.395537064704257       -13.311770889217430     
 C       -51.007226027940597        94.180984768745304       -13.306294568573344     
 C       -52.228341292521556        89.781078558507630       -12.586522190978336     
 C       -50.712591568998526        95.109966712613044       -14.484438887709542     
 H       -49.830026979984673        91.720518313838710       -12.416402117333924     
 H       -50.996704162757140        91.707744603011918       -11.500638311922922     
 H       -51.199626321091230        93.052943226353236       -13.999242018166822     
 H       -49.449273840394298        92.800024702345468       -14.140825592620271     
 H       -50.154098414177192        89.902166839166043       -13.731556490363731     
 H       -51.676008950585938        90.938941492227428       -14.001998532291344     
 H       -52.095385037434582        94.142567658440427       -13.255955224958065     
 H       -50.671097134160270        94.532658954517004       -12.330875335237403     
 H       -51.814687707033713        89.283004393247751       -11.709645490064149     
 H       -52.545764054151228        88.909778438163471       -13.159391243103359     
 H       -53.054636932193581        90.480379450952910       -12.458796599023646     
 H       -51.336701214828736        95.352473814212743       -13.624335764969402     
 H       -50.370820271102318        95.459117467359405       -13.510074431937888     
 H       -49.772402886455708        94.967819929508693       -13.951579140825192     
 C        67.102310638059450       -137.39175717598255        51.133148990561061     
 C        66.938613651299832       -138.77511267818790        51.763523305570963     
 C        65.968327010168025       -136.36619214981411        51.121378098162850     
 C        67.654132742010717       -139.93260852306545        51.066331283401176     
 C        65.654122552212556       -135.85526738236470        52.527817730926252     
 C        67.517833829478235       -139.80035445765762        49.549171959539130     
 H        67.714477221268496       -137.20688888073377        52.015858325184396     
 H        68.176970271405708       -137.21373474213996        51.094230472415518     
 H        66.402865370434000       -139.46110625646466        51.107408521412950     
 H        66.615925500435168       -138.94343427713679        52.790966835771506     
 H        65.115538652635294       -137.01248854945436        50.913645132200770     
 H        66.209623420638280       -135.62160263245531        50.362785613099511     
 H        68.708699378402329       -139.87902594917807        51.336734792782615     
 H        67.305391015455868       -140.92273333292397        51.359814035086885     
 H        64.798608409422968       -135.19539776833645        52.383708205003693     
 H        66.401880543201443       -135.14203789536606        52.874605484433935     
 H        65.341000394179972       -136.61729265900902        53.241520779161362     
 H        68.249387559613325       -139.16524431617259        50.048735945028938     
 H        68.338102712022675       -140.50925251188971        49.661965917696804     
 H        67.254748997278085       -140.82126157345809        49.826002243459300     
 C       -46.622833239926031       -52.542126029887172        144.72397945170991     
 C       -47.112266212803220       -53.393789784162827        143.55224348782681     
 C       -46.716434928478812       -53.269346045482230        146.06570624809541     
 C       -47.464175212235176       -52.353691345544092        142.48819640837092     
 C       -46.982737253358259       -52.099658912818775        147.01373371786900     
 C       -47.760759981015880       -53.154579835881520        141.21994720350580     
 H       -45.607502833424512       -52.865926847000651        144.49516249335520     
 H       -45.933204506000514       -51.713884775027573        144.56110337652746     
 H       -48.115065573459979       -53.816808827358926        143.61181148903964     
 H       -46.377355434333225       -54.034158345732706        143.06445844355937     
 H       -46.156153198543350       -54.186737535792254        146.24619801270799     
 H       -47.775277357814502       -53.369908603283456        145.82729502634297     
 H       -48.297704234683273       -51.760465249193381        142.86424442819546     
 H       -46.752690753515765       -51.552529364538763        142.28812288908472     
 H       -46.143371784833903       -51.417467360132342        146.87889971924628     
 H       -46.873984407880855       -52.543184939788389        148.00345971136221     
 H       -47.888032881699615       -51.506624169515248        146.88392744800157     
 H       -48.807308572091387       -52.952812746792020        141.44825846148404     
 H       -47.959339760089648       -52.428254454977314        140.43183712207929     
 H       -46.828138101168470       -52.756501358348963        140.82013482360767     
 C       -66.145469142617614        56.636106892814098        116.36161892220217     
 C       -65.247125239927172        57.404071143076905        117.33169629988777     
 C       -65.276798091941657        55.485696778076914        115.85190510678426     
 C       -66.038578450555846        58.703999595575944        117.47876336278357     
 C       -65.111284372963155        55.877560945518084        114.38327009247101     
 C       -65.394191784276273        59.462512427312902        118.63948083741529     
 H       -66.576366552240884        56.005156506937830        117.13900495467503     
 H       -67.228401751491489        56.754649277033977        116.39773887385111     
 H       -64.347676339971130        57.880118305447525        116.94122122524442     
 H       -65.157345965358701        57.031250196141052        118.35201204173175     
 H       -65.839398220240184        54.555514481088025        115.93154162834128     
 H       -64.285843438726403        55.619972362996677        116.28558582827561     
 H       -65.816426115689666        59.310710753463027        116.60089671180188     
 H       -67.106043842735204        58.581621079780817        117.66217874198119     
 H       -64.556296666781535        56.814918642742214        114.42133692661827     
 H       -66.050850578969047        56.217842279379568        113.94792656570009     
 H       -64.517215726906699        55.189886863350161        113.78136743223840     
 H       -66.257052518992992        59.654014457546786        118.00159507599408     
 H       -66.373662266832042        59.029811500553095        118.84321459091936     
 H       -65.734378965183126        58.428401905093409        118.69414412423858     
 C        60.754285899671572        60.937239320365123        97.985568095604336     
 C        60.900491371337075        60.547599059839307        96.514294697111666     
 C        60.521878605474804        59.615699949040668        98.718617513407253     
 C        60.240328208588295        61.762880233319478        95.862284546326180     
 C        61.204952228721538        59.600732451547714        100.08647260621328     
 C        60.443268844716940        61.777380195307622        94.346881679326771     
 H        61.825202083503605        60.892622487656979        98.183678868938784     
 H        61.120457900284272        61.899823787298907        98.342568435261924     
 H        59.975205403462439        60.207836731499334        96.048991079578386     
 H        61.815431600524299        60.066964395034759        96.167921138389730     
 H        60.815569969233124        58.739130723774444        98.141147351753133     
 H        59.468498034495767        59.341014964698701        98.663503271118003     
 H        59.162228926409348        61.856161386343167        95.993053319117791     
 H        60.684736729559852        62.595769516052556        96.407166657308451     
 H        62.282241150615555        59.758562275570142        100.13783585557498     
 H        61.092067329011265        58.591641675731388        100.48282198971604     
 H        60.705699751703527        60.252244043872160        100.80367523897965     
 H        60.047030553637384        62.592583108674084        94.952306631153164     
 H        61.202677335373259        62.490320481722229        94.667996719604034     
 H        61.465257620822797        61.562995901255839        94.659416960908388     
 C       -71.930944052229478        69.457282933185752        59.132440695758682     
 C       -73.233713005473348        70.096696604360773        59.613880358877090     
 C       -71.593972422508898        69.322081240700044        57.647175855313627     
 C       -73.981617059667798        69.366403516051378        60.729744347691373     
 C       -70.622044314739711        68.142115833726123        57.676813528520334     
 C       -73.035046822390996        69.069564904653120        61.893244485998380     
 H       -71.494372384763494        70.388507228430271        59.493448282343962     
 H       -71.247448985917444        69.513313937715182        59.979668525888592     
 H       -74.178734577651099        69.617953461662083        59.357288751520265     
 H       -73.439069075114048        71.159104108347009        59.482658465560213     
 H       -71.434806809474438        70.156816893668449        56.964546580164139     
 H       -72.441918388670857        68.637869505689437        57.616484379356649     
 H       -74.779546338861991        70.023092170638108        61.076398091600097     
 H       -74.454748933119177        68.433797664436142        60.422347838480732     
 H       -69.606713315950003        68.499172764666071        57.504438291154663     
 H       -70.902975001437738        67.452699784798014        56.880645505458176     
 H       -70.645504719598378        67.677535376924538        58.662569409921929     
 H       -73.017500753583036        70.150332167078005        62.033722962396496     
 H       -73.633093657777167        69.122426027956507        62.802994820908644     
 H       -73.596360459005297        68.146562716439021        62.038482036794825     
 C       -55.018619155800749       -54.372110118397060       -13.622444468747483     
 C       -55.691000748792298       -55.588828902062360       -14.259107130453975     
 C       -53.498491874505390       -54.250631881551186       -13.511552238927752     
 C       -55.834671669817141       -56.738084942271932       -13.260903683413327     
 C       -52.996965655431858       -54.676301616247187       -12.131292172597149     
 C       -56.700063425899899       -57.782778596255632       -13.966278208312124     
 H       -55.329209975904263       -53.882330357598448       -14.545347020449857     
 H       -55.760810659637279       -53.574750600225599       -13.660779256568174     
 H       -55.053010415581070       -55.933247617004604       -15.073013817097685     
 H       -56.737604695646233       -55.518419160577459       -14.555354739037393     
 H       -53.120922445806514       -53.258834166628894       -13.760306343910353     
 H       -53.026099797088186       -54.688125454423428       -14.391066380097021     
 H       -54.833103554598452       -57.074225383078463       -12.992629833111076     
 H       -56.220062359481204       -56.517702049973295       -12.265411110709397     
 H       -53.557936435463724       -54.149874395034075       -11.359096571129914     
 H       -51.942672009462719       -54.409573999094668       -12.057662562351071     
 H       -53.170752198466666       -55.743760788539319       -11.995538081958241     
 H       -55.991390299446778       -58.584190869533032       -13.757422479303983     
 H       -57.065120357010755       -58.430299593373675       -13.169064320654678     
 H       -57.695416354619461       -57.489871296366204       -13.632245492736589     
 C       -122.15721291314109        148.39190381585931        24.805299647785471     
 C       -122.52709051535376        148.28532563613419        26.285053889790895     
 C       -123.08563974198768        148.23668843478958        23.600404326421454     
 C       -122.33341709020502        146.86304956680084        26.811800852724890     
 C       -122.41054477136862        147.34982219522135        22.553716120604484     
 C       -122.82801375155778        146.85953156435593        28.258591358028784     
 H       -122.23639192688682        149.46072751000199        25.003911339034396     
 H       -121.71975858168670        149.18136332314558        24.194163461289317     
 H       -123.59747449701420        148.49118441531400        26.284529441490886     
 H       -121.85093105627432        148.86695735981104        26.911642184361874     
 H       -123.27313135408983        149.09393468980795        22.953816540429262     
 H       -124.09961797962823        147.88262365430677        23.786378288913038     
 H       -123.02729124260421        146.81158308758114        25.972759880218906     
 H       -121.32096921473834        146.53629669824764        26.574562863032110     
 H       -121.48999377227339        147.82576076551220        22.215828251295516     
 H       -123.07660192660990        147.24278530703529        21.697555506699810     
 H       -122.13739874942701        146.41966941481348        23.052020319263516     
 H       -122.85652254413296        146.01895337059898        27.565254863605613     
 H       -121.95919854909745        146.20533861137474        28.331335436892221     
 H       -121.79097329169302        147.14946452711482        28.427665152465046     
 C        37.558108876931989        21.603068856636636        76.310492603556256     
 C        37.994183128000515        21.271983692010188        77.738099979303897     
 C        37.383017247535662        21.572260820051461        74.791863375600784     
 C        37.631994555436457        22.292857089191099        78.817209761337253     
 C        37.929638712191384        22.947985287207860        74.409203869934814     
 C        36.113947279797024        22.213722647653981        78.981864579324110     
 H        36.688038243206883        20.965884503422803        76.152147373799181     
 H        36.832035222283544        21.766520900825991        75.514125520029992     
 H        38.807989280542834        21.844106927231731        78.183627285918732     
 H        38.191963796131930        20.249403613522396        78.059522973262020     
 H        36.523378632785089        21.150701094234371        74.270894223645769     
 H        38.390429179853065        21.156194479942105        74.781374264217732     
 H        38.027744931916637        21.911938100300969        79.758688529605735     
 H        37.929563795198519        23.319943925983406        78.605915680776135     
 H        38.867537477311728        23.348610562936337        74.793840262389679     
 H        37.276282314228403        23.817777063827560        74.477670626043789     
 H        38.143524383790648        22.967343159846813        73.340570064502998     
 H        36.490297948451541        21.236682840845248        79.284937731693717     
 H        36.135848913368662        22.346644053313749        80.063507863928805     
 H        36.454602692730582        23.179661643726735        79.354712714307709     
 C        43.561575834051922        66.356381340046426        102.32707650124453     
 C        44.180343934422616        65.021355372521370        101.91153758506992     
 C        42.655199903934502        67.526516383412826        101.94353029290555     
 C        45.441803808260957        64.938918072009983        102.77163292093030     
 C        42.327289711011431        67.443540012889585        100.45241298453846     
 C        46.353194614412189        66.139850504130976        102.51674266854882     
 H        42.941881460715891        66.259797837537434        103.21856431899319     
 H        43.189768668676727        67.209663729031320        102.89432308623135     
 H        44.707843581361075        64.977210198298721        100.95870215120216     
 H        43.626105406037418        64.117992274502825        102.16620361150484     
 H        43.059186880905536        68.538877993038113        101.93923025453262     
 H        41.738236469626088        67.664064594874546        102.51655612550444     
 H        44.532172244116722        65.032933376430279        103.36478672677302     
 H        45.917819957542825        63.966625304893526        102.89873706364473     
 H        41.726090922340710        68.326611127384751        100.23597515342394     
 H        41.569168221838453        66.670513025170678        100.32678996074365     
 H        43.199984361062128        67.231618287546880        99.834680615905725     
 H        46.034578531746916        65.955198564088448        103.54265074510380     
 H        47.054501563136576        65.352786227606359        102.79386783306626     
 H        46.570240640647050        65.382881599846058        101.76309216909243     
 C        110.91189000085375        82.178538313840860        70.803088047356141     
 C        110.35575143578464        80.985969806681965        70.024415328174669     
 C        111.46950781438632        81.785566568836131        72.171472720067214     
 C        109.19164329456568        81.649298709878735        69.287741795699404     
 C        110.76920049949746        82.721492785820445        73.157095762144948     
 C        108.29714278302545        80.603411105595484        68.621536940422601     
 H        111.85051749349475        82.054027527344772        70.263110735306228     
 H        111.23331176548132        83.081759119505392        70.284455031283755     
 H        109.73698544117663        80.261934325564823        70.554510869248602     
 H        110.96771352286083        80.563401541294880        69.227522322217538     
 H        112.52118704933800        81.936486878815373        72.414976007373539     
 H        111.24461584657853        80.731931676896991        72.336933222028392     
 H        108.62418384645581        81.977215580190389        70.158695430762521     
 H        109.57278584651141        82.427685949731000        68.626724611791431     
 H        110.90120185728800        83.803464358298626        73.153480601986629     
 H        110.81245427761563        82.499822189669572        74.223440602089141     
 H        109.69130148483924        82.665167911974351        73.005236380014651     
 H        108.16583058150765        81.655636937787165        68.873881600127135     
 H        108.65209374604316        81.404219154745462        67.972833429439163     
 H        109.29595753358529        80.868773505472220        68.275051934962562     
 C       -96.499830457208375       -53.758618621660901       -35.134183561262780     
 C       -96.347530361419985       -52.351556117803064       -35.712820572747674     
 C       -96.681595068611273       -55.270626973070826       -34.997679799609479     
 C       -97.600912426501779       -51.994732796139537       -36.512540147868883     
 C       -97.826025801331937       -55.513948642148996       -35.982014094117886     
 C       -98.779470652205418       -52.177964008098570       -35.555843863606519     
 H       -95.484455295466404       -54.154739356558473       -35.148384147422036     
 H       -96.185634063411612       -54.624361455647126       -34.551199857485138     
 H       -96.003653086518298       -52.185278965121505       -36.733702705245399     
 H       -96.019470138667714       -51.555105641799209       -35.044881121074198     
 H       -97.004991656754456       -55.497699378634657       -33.981829034587690     
 H       -95.814127495230878       -55.737941356753616       -35.463745590193014     
 H       -97.564124987907562       -50.920908522340355       -36.695974223700631     
 H       -97.760843001964204       -52.583479029430805       -37.415812062147786     
 H       -98.779991008055987       -55.331197350843787       -35.487390774992086     
 H       -97.779243759370658       -56.554147619405335       -36.304345534583085     
 H       -97.745353773673671       -54.812699028307797       -36.812580779573572     
 H       -98.801953747076354       -53.216896845322374       -35.884801328349432     
 H       -98.709838730222231       -52.708775513288671       -34.606375307824756     
 H       -98.379307337192927       -51.464799737901288       -34.835173319460566     
 C       -65.144245395605651        143.14635710668523        47.375040747317989     
 C       -64.558094946829954        143.23614216225369        45.965712088536620     
 C       -65.761887855112150        141.78465712175984        47.694621503301086     
 C       -65.620607334174849        144.02074864172926        45.195451678607895     
 C       -65.698599091863770        141.47262338838956        49.190104915031533     
 C       -64.918727076858147        144.12156449171385        43.840814758585893     
 H       -64.094769444580805        142.85805902839047        47.434911047501501     
 H       -64.931439163207514        143.79220947770861        48.226914130679120     
 H       -64.611609020082881        142.35042657336311        45.332668541719734     
 H       -63.650813810334213        143.82774164515425        45.843438001202664     
 H       -65.331086197053722        140.96468258504248        47.120033215937497     
 H       -66.720132172138293        141.68303601210224        47.185169812857865     
 H       -65.954205263139656        143.08955819116844        45.653378189234779     
 H       -65.849640451857752        144.94176568430333        45.731522074977775     
 H       -66.032370619844613        140.43762146391867        49.264047243502823     
 H       -66.389605332649055        141.99627994697121        49.850706302345692     
 H       -64.642446397509076        141.46661750752978        49.459558870047992     
 H       -65.993262621890025        144.04320810088979        44.006143366976303     
 H       -65.423452845181913        145.08646667821085        43.888935798848109     
 H       -64.551976346619298        145.04054832379126        44.298048391276708     
 C       -131.98982654150964        4.3889621690466978       -81.063378711839619     
 C       -132.20061849125892        4.9948849115260918       -82.451278331426593     
 C       -132.71626716016044        5.3369078745762444       -80.108641056766047     
 C       -131.13428676399658        4.6833944067419671       -83.501873976315437     
 C       -131.91015244931364        5.1288089387459959       -78.826176669009911     
 C       -129.74785375471487        4.5878722192072212       -82.864284785699539     
 H       -132.86275921756265        3.7395785303109887       -81.129631582882908     
 H       -131.70151558225027        3.3435461044710437       -80.953460492184021     
 H       -131.42368987830332        5.7167478938430270       -82.703063504306897     
 H       -133.15873584355484        5.3640906186957249       -82.817062801555807     
 H       -133.73875654342453        4.9852274614114878       -79.971031596003726     
 H       -132.47415084682913        6.3518567208442667       -80.423853013816114     
 H       -131.41283212402229        3.6489559465511823       -83.702994555936399     
 H       -131.22033167109674        5.3865160882684693       -84.330316027003178     
 H       -132.61758430598309        5.3594033140939912       -78.029642731428140     
 H       -131.17571656980644        5.9205014006502159       -78.678098835248434     
 H       -131.56785780303215        4.1088829911956317       -78.651003937694654     
 H       -130.02135761828714        4.2558919622084321       -83.865825933903508     
 H       -129.57416733818022        5.3391329830661318       -83.634700429205992     
 H       -129.90262823956931        5.6641898566624027       -82.788884632894721     
 C       -143.72203625413934       -27.774474514705517       -99.493102790247420     
 C       -142.66307959598049       -28.721804677890283       -100.05791897080150     
 C       -143.06083908668063       -26.440710686061216       -99.144199674015297     
 C       -142.75043169814725       -29.934822832765438       -99.131205715175398     
 C       -144.14111390021313       -25.686780008676799       -98.368032255898555     
 C       -142.18785089792431       -31.104548655480194       -99.939342639150084     
 H       -143.99275025868945       -27.414163889825261       -100.48556951075676     
 H       -144.77481078848766       -27.872384876840911       -99.758016586627178     
 H       -141.61689099087511       -28.506819327258771       -99.840270825480033     
 H       -142.84531782105827       -29.132853160735490       -101.05085822810173     
 H       -142.30596770183627       -25.895672381656688       -99.710946944638565     
 H       -142.72107132879066       -26.958876545685467       -98.247448849388519     
 H       -142.20190357040133       -29.698372329426132       -98.219444782320622     
 H       -143.71688734876219       -30.188532918248313       -98.695666123099016     
 H       -144.71742858392648       -25.208146836323337       -99.159784479230865     
 H       -143.78751583596525       -24.804936874926341       -97.833784039605490     
 H       -144.86376367792386       -26.348157189564290       -97.890059900493057     
 H       -141.59857795585415       -30.360912289444588       -99.402814655202178     
 H       -141.94956314661053       -31.106784151916667       -98.875710226195380     
 H       -142.70471514725642       -31.533467883440316       -99.080867468545534     
 C        85.276185254687633        78.525452294544749        29.406901053169410     
 C        86.363302179215054        78.317765383915443        28.351967935800154     
 C        84.136218934667710        77.572830282401753        29.768604096011018     
 C        85.799689879303372        78.427592107623127        26.934886367912899     
 C        82.717878741813863        77.859766352693839        30.262385334072931     
 C        86.993742651644752        78.209924768782415        26.004993982583926     
 H        86.061881466863781        78.190564857406983        30.084124698339011     
 H        85.295121151367439        78.693634355499654        30.483681560940607     
 H        86.658885240190600        77.280138835958240        28.507086633442800     
 H        87.105742470027067        79.115423676668470        28.376941106893632     
 H        84.230910232735027        76.493940766421957        29.891612046721363     
 H        83.512793602287090        78.074939225609555        29.028788247488819     
 H        84.999105843385038        77.694466141093642        26.836441143720450     
 H        85.249659931392614        79.328163640340733        26.661869820530576     
 H        82.646598938177888        77.303957495527740        31.197316130607831     
 H        81.969250899006298        77.341683835615100        29.663013257300200     
 H        82.510578127595053        78.902034143888784        30.504881351957920     
 H        86.582886358051326        77.218410165940256        25.814741935279756     
 H        86.920191802961611        78.209464557431403        24.917478437586752     
 H        87.016839981288015        79.255035282377989        25.696269969652896     
 C        13.163462874750845       -90.392278540482167        67.930447755693990     
 C        13.010287971163450       -91.553709063226734        68.913024736027893     
 C        11.958332630849084       -89.451268265068734        67.931802870582260     
 C        14.363122616065681       -92.241702429109580        69.098347312017793     
 C        11.885415178388731       -87.926976119826648        67.836631965994968     
 C        14.898910333505167       -92.541123092678674        67.697947464967072     
 H        13.721001834513201       -89.856371419034232        68.698597393123904     
 H        14.150335268129520       -90.068839861091362        67.599433766043106     
 H        12.864629187454481       -92.578539818483407        68.571549308991592     
 H        12.488409664083182       -91.366141404593094        69.851407072947737     
 H        10.936140903519030       -89.735952469859782        68.181160007435594     
 H        12.291696242324523       -89.060391037966951        66.970458142162244     
 H        14.437649696287556       -91.246042963948042        69.535620505670963     
 H        14.251662280826762       -93.042955610578005        69.828874509440666     
 H        11.116503632813149       -87.648212184008770        68.557163446681486     
 H        11.515696918549549       -87.490360017142351        66.908852440777238     
 H        12.824613568711088       -87.547476356662372        68.239107260305175     
 H        15.435552970323416       -92.032042461885098        68.498541940006248     
 H        15.511001305984884       -93.208305361502269        68.304834959123411     
 H        14.659811594735260       -93.555972167360352        68.015773090883386     
 C       -13.519961976017466       -126.56109397584919        68.822326356479678     
 C       -12.912048720671871       -127.23074931797549        70.055145953799538     
 C       -12.981137922488488       -127.10938947685557        67.500629869601809     
 C       -12.250210139683833       -126.23761159825423        71.010911688776716     
 C       -14.037328889462319       -126.59557957409611        66.521701290831160     
 C       -13.266277547381128       -126.01358055080838        72.131294709352986     
 H       -14.158976002658777       -127.40263461525591        69.089852860389399     
 H       -14.442519823245167       -125.98338308646210        68.765430044276272     
 H       -11.903149657670861       -126.85824805979654        69.877760698619610     
 H       -12.857508867050164       -128.28519084533048        70.325845825921093     
 H       -12.533609013126428       -128.09458854064266        67.369478437979055     
 H       -12.445388541397548       -126.16222109647858        67.437823178219006     
 H       -11.299202336888838       -126.66435534786362        71.329618181525419     
 H       -11.893188785599916       -125.28880589860582        70.610407622413575     
 H       -13.528765076930329       -126.58420285136421        65.557681941415467     
 H       -14.373981833651602       -125.56439384203956        66.628569413003589     
 H       -14.796704524477615       -127.37427949543981        66.450461562350213     
 H       -12.217301922161264       -125.81684638448134        72.352757462580271     
 H       -13.162681468647994       -125.02196969909582        71.690754418343047     
 H       -13.767388942686081       -125.84064724857018        71.178886483470691     
 C        42.744698012154394        24.460604151909319       -100.07247038983580     
 C        42.321288027324726        24.382680073679449       -101.53960800189441     
 C        42.240304068264102        25.713860985397108       -99.356387231582204     
 C        42.719368198320026        25.560907740461356       -102.42907562235204     
 C        43.478101608649794        26.289724445591713       -98.667852901117968     
 C        44.232192242735806        25.437541084544335       -102.61342588771411     
 H        41.836367645138488        23.858079696524307       -100.07199977512315     
 H        43.091419620484402        23.646838315836845       -99.435548669261010     
 H        41.607458413531845        25.164247734634454       -101.79979886897992     
 H        42.035219771539715        23.459831520250457       -102.04420239547534     
 H        41.528377624942387        25.643903111752252       -98.533972105665782     
 H        41.809437398667036        26.379016238211825       -100.10473371756891     
 H        42.136329093764864        25.497332903686303       -103.34783760782385     
 H        42.443958975116857        26.567334017851852       -102.11386779914633     
 H        43.572154424172368        25.665617975483617       -97.779176867147257     
 H        43.328439961343548        27.262407215960696       -98.199248932133628     
 H        44.400476720299338        26.095567698633694       -99.215235180860475     
 H        43.863372744984822        25.890086328886891       -103.53390126183369     
 H        44.432476375256243        26.487781377680911       -102.40133729051759     
 H        44.032235711581478        25.784286869324113       -101.59957939079078     
 C       -150.56187312568431       -139.54490869230850        147.52227020304500     
 C       -149.35703385373435       -139.77212192319018        148.43582232333117     
 C       -150.26548583102709       -138.62580629445310        146.33683937020001     
 C       -149.77246695327889       -140.65840960428230        149.61045008093396     
 C       -150.45381224800201       -137.25246638202395        146.98206164630520     
 C       -150.04449333423059       -142.09008295649818        149.14768230012115     
 H       -150.10985735407351       -140.47110916063394        147.16739776535167     
 H       -151.46651258421414       -140.14877010865806        147.45100403113389     
 H       -149.19195099569643       -139.16849668740787        149.32828197220027     
 H       -148.41569554474799       -140.07504067620485        147.97732216118547     
 H       -151.02069846671702       -138.78626132013321        145.56741876544939     
 H       -149.19511588894380       -138.69371817903738        146.14242690086650     
 H       -148.80617756429157       -140.71376134721561        150.11176927635975     
 H       -150.58516341097373       -140.18206749094176        150.15883199013339     
 H       -149.92506976715208       -137.03016693775965        147.90894578652424     
 H       -151.49970598675472       -137.18717422454969        147.28196705281781     
 H       -150.30378172726515       -136.43931210693506        146.27187084154201     
 H       -149.03733858851291       -142.20551018380354        148.74716286199941     
 H       -149.43401386114709       -142.71664314522715        149.79794157708190     
 H       -150.61796589420459       -142.47676863978614        149.99012125770270     
 C       -98.478461435418737        96.473289849805724        6.7004545059733598     
 C       -98.900738393796388        95.004732060153785        6.7539440984253547     
 C       -99.067653733623047        97.521810077742344        7.6445406782972984     
 C       -99.465519579350115        94.408835462103312        5.4640718346424650     
 C       -99.040279987801355        98.928759654209756        7.0465568031371024     
 C       -100.13907679313088        95.484952366551340        4.6119368664415372     
 H       -97.563281398332663        96.090050998569083        7.1517565007351349     
 H       -97.510699579184262        96.480938678085096        6.1989781631662026     
 H       -99.973948118223333        94.883689698129587        6.6067378564756138     
 H       -98.566423582658516        94.300807577887952        7.5160621169618675     
 H       -99.021336356369261        97.487473999540612        8.7330147236085995     
 H       -99.959098147752556        97.440014009484287        7.0226594346836970     
 H       -98.520504981676268        94.212945039131228        4.9574415207731271     
 H       -100.08561158543290        93.544321409761167        5.7011401557375372     
 H       -99.361417033314339        99.817444828940836        7.5898886647275017     
 H       -99.486180233541845        99.098962481854514        6.0666057956124915     
 H       -98.009878029466876        99.207743432071368        6.8262391456098523     
 H       -99.215228514310425        95.713694075795672        4.0806351287363309     
 H       -100.15614620469243        95.074434550523904        3.6023410314290238     
 H       -101.09240964056123        95.006953715940796        4.3866065095703348     
 C       -34.238290228504852        55.069708079774365       -66.160656489059932     
 C       -33.566294546344878        55.504238313509674       -67.463517294797938     
 C       -34.314655913378999        54.034251640747634       -65.038230923292161     
 C       -34.791957813758458        55.559769487436874       -68.375935360390187     
 C       -35.243114052380037        52.993131037929771       -65.664229736938253     
 C       -35.517946146117552        54.223442854270061       -68.217780307572880     
 H       -34.119772483828811        55.812754926452627       -65.372027970564687     
 H       -34.796949610985479        55.045522506077063       -65.225020459540445     
 H       -33.463459535336384        54.706942313378946       -68.199617864582564     
 H       -32.764273854294707        56.242053088882436       -67.441332878062340     
 H       -34.220315608533795        54.331821016405748       -63.993887879222335     
 H       -33.436893848295490        53.596635523723812       -65.513757905586317     
 H       -34.895232843538523        56.354732859893439       -67.637377710636670     
 H       -34.479628787749547        55.904121931032819       -69.361821780085876     
 H       -35.114068075067358        52.090227632968904       -65.067394364524631     
 H       -34.783936386099789        52.663772827177368       -66.596312925291784     
 H       -36.249623201953952        53.371419247448266       -65.842940039925864     
 H       -36.138476318844788        54.954263191737340       -67.699182317654603     
 H       -36.254388233235154        54.431134334327247       -68.994064586091184     
 H       -35.149859750507723        54.300632116578178       -69.240841497344547     
 C       -85.898314747418382        141.12783252331798        40.563771625282193     
 C       -85.844974748612515        140.38225531637701        39.229938639405148     
 C       -86.995710850314012        140.62451518534527        41.501979689517910     
 C       -86.707661749222950        141.11786072891675        38.204025964749043     
 C       -86.342268673522355        140.60318670170881        42.884151733602820     
 C       -87.859703043528171        141.67334263955385        39.041929073393604     
 H       -85.203473706517755        140.29583190404151        40.678099668076115     
 H       -85.116652608939447        141.73705787357127        41.017587466913277     
 H       -86.618965065361536        139.67235268485959        38.938258565020625     
 H       -84.868118462436996        140.09085187784311        38.844016651690858     
 H       -87.389221284951475        139.61172293533258        41.415369004720908     
 H       -87.840470746584373        141.30961160647684        41.430399982860088     
 H       -85.760979162521139        141.62097765072605        38.007136743142382     
 H       -87.009508651516754        140.41477217749195        37.427717412688295     
 H       -85.344791611467656        140.17071113416100        42.806021892742187     
 H       -86.937845218959765        139.97627312292397        43.547754001947894     
 H       -86.228405539045013        141.64042847664552        43.199214753406167     
 H       -87.271331349084306        142.38131878120703        38.458243841522808     
 H       -88.313775955815956        141.53320132021386        38.060971294372983     
 H       -88.110558726700859        140.65234283801510        38.754299451922201     
 C       -78.965470892621823       -114.96007626354496       -7.6810709414852907     
 C       -78.139299980247415       -113.75924014723014       -7.2192536125548976     
 C       -80.250388443947926       -114.89130785889762       -6.8551782738500133     
 C       -76.681270664616619       -114.03442306357097       -6.8501116884943896     
 C       -81.202140021698781       -115.70394861003234       -7.7336002019846992     
 C       -76.741799737588508       -115.39466940074526       -6.1544773901359164     
 H       -79.431595711431413       -114.42025022303893       -8.5053375922888605     
 H       -78.750058017086275       -115.44781462751091       -8.6317594334283783     
 H       -77.825289407158152       -113.85609877177953       -6.1799674310873680     
 H       -78.410697835221015       -112.72125906188690       -7.4117073793828503     
 H       -80.581461786515746       -113.85417513878716       -6.8018287649132230     
 H       -80.093934752122777       -115.51144625733052       -5.9725398120102202     
 H       -76.547240745158390       -113.86951566253855       -7.9191960818286198     
 H       -76.316180898274411       -113.22059986465617       -6.2236124290789077     
 H       -80.654483872530847       -116.52414182691980       -8.1977722688185732     
 H       -81.591972439393587       -115.06078428108810       -8.5225681099915711     
 H       -81.951898856699358       -116.13979869384198       -7.0732999568444006     
 H       -76.345371299965862       -115.20821365750308       -7.1525648971960933     
 H       -75.743291010444452       -115.03386746918028       -6.4012611969366189     
 H       -76.031694157587594       -114.78537828483378       -5.5953581041916767     
 C        94.538270864344909       -105.62881232455962       -94.001656914192125     
 C        93.312839218782528       -104.86504567131769       -94.504467794593381     
 C        96.053812606583733       -105.63495765378953       -93.799329535674786     
 C        92.979741903270408       -103.67849429569195       -93.599491057774657     
 C        97.140194559973679       -106.49925644691193       -94.440112674618646     
 C        91.746941976855112       -102.91732120675998       -94.088020309844680     
 H        94.465981848682986       -105.86398777645609       -92.939787422500459     
 H        95.205432071720139       -106.32623169848482       -93.495097768986838     
 H        92.463635808447549       -105.54805360778424       -94.483166931935884     
 H        93.380970368916422       -104.31899548132112       -95.445364876089045     
 H        96.586284856131044       -105.11071140077138       -93.005768451611132     
 H        96.173981465711478       -105.45853348655938       -94.868223348323582     
 H        92.760202645700204       -103.91132159684108       -92.557524685054787     
 H        93.912513937541590       -103.11457563377500       -93.593823199039321     
 H        97.635493261109943       -106.99032655651371       -93.602479567486810     
 H        97.971564595117670       -106.01454201549666       -94.951948371938272     
 H        96.674694743030372       -107.28206301790678       -95.038964741855679     
 H        91.181737692412511       -103.63962430882474       -93.499019215821463     
 H        91.444519019816738       -102.25844068457823       -93.274068961503900     
 H        92.365441069259589       -102.01997701128521       -94.069792520977245     
 C        61.184280548016702       -135.18836153200695       -146.59111975470816     
 C        61.922079058699339       -135.23724783148947       -145.25279823602986     
 C        62.210680531689562       -135.15505916764982       -147.72391935379085     
 C        60.811069734915016       -134.68528696407159       -144.35902065402897     
 C        61.379837258171115       -135.27835688065173       -149.00154929818399     
 C        59.766579810395825       -135.79635746977462       -144.24764705901734     
 H        61.117307291205563       -136.27500213703422       -146.64428732681444     
 H        60.178248330302885       -135.59264005109554       -146.70318260880822     
 H        62.283155323421951       -134.30479578728333       -144.81891217211381     
 H        62.634281236138989       -136.03993617828635       -145.06159295904308     
 H        62.941968007667903       -135.95432702378926       -147.84429186686620     
 H        62.761666909567751       -134.21734268559200       -147.65179545284988     
 H        61.225833468388267       -134.60045426467281       -143.35459325231048     
 H        60.340894021620251       -133.76770571352441       -144.71268647734175     
 H        60.583484365325582       -134.54045946153875       -148.90444444492547     
 H        60.914522600715415       -136.25977728467160       -148.90991799383286     
 H        61.856483989026422       -135.09502645033743       -149.96451235342224     
 H        59.990849646082886       -134.91140572674365       -143.65211085219605     
 H        59.381803072485262       -134.80998159166785       -144.50670197590782     
 H        59.906812652659021       -135.17035519047039       -145.12887112921456     
 C       -38.189753934693258        129.25881212731758       -5.8081767954593655     
 C       -38.307741033454761        130.25901255299820       -6.9586198201216813     
 C       -39.462616985750927        129.17100400074159       -4.9655913150499993     
 C       -37.026306293029180        130.55962327752835       -7.7366937761898908     
 C       -39.512819731759080        127.87798749062226       -4.1510797154540047     
 C       -35.958277104232785        130.91682250186287       -6.7024968336408079     
 H       -38.466929662374795        128.46942803418889       -6.5068515279674290     
 H       -37.464935595092086        128.44573712052076       -5.8487654052386588     
 H       -37.866939449699757        131.24881875339133       -6.8399705488504301     
 H       -39.256686949266317        130.45755783534597       -7.4567979020390993     
 H       -40.204660088984511        128.98483475689798       -5.7420016727393284     
 H       -39.557049569536552        130.10893974990515       -4.4183627857072292     
 H       -37.298924506637960        129.52387378171724       -7.9391837484572596     
 H       -37.261912858248174        131.24984775641835       -8.5467430176593950     
 H       -38.835121640420489        127.95930589813929       -3.3012488570225194     
 H       -39.179919716919620        127.05114043618673       -4.7784564384216912     
 H       -40.525477970576787        127.78766049948808       -3.7580601963169853     
 H       -35.531676275384264        129.93298067252042       -6.8978604206789216     
 H       -34.930204557989278        131.17213109566595       -6.9593710404486107     
 H       -35.964260439423001        131.97182683034148       -6.9764129790445057     
 C       -101.17829401406152        80.314730616773872       -108.61123494115536     
 C       -100.50591497279987        79.439798293080216       -109.66964923770273     
 C       -101.94483956823501        79.418034373791727       -107.63851465186426     
 C       -98.983536974682110        79.456751537802916       -109.52851556912312     
 C       -102.10211113399302        80.264639466484056       -106.37504063401002     
 C       -98.650501657177330        78.302057564889779       -108.58320596341164     
 H       -100.29418771314515        80.300209932739335       -107.97386126037109     
 H       -100.77789347997069        81.291589291926044       -108.34007718020202     
 H       -100.75368783330286        79.851834687979107       -110.64787959181187     
 H       -100.64636290187983        78.359682014013728       -109.62813785271260     
 H       -101.50165167946935        78.501074750337295       -107.25009538127576     
 H       -102.89342713024253        79.149919994787453       -108.10369885473830     
 H       -98.554883908591464        79.373186413870613       -110.52720138792313     
 H       -98.501036618527991        80.379166459921777       -109.20533731274614     
 H       -102.63807933968887        79.612394906957036       -105.68553718407621     
 H       -102.83531543786192        81.059714491403170       -106.51056620902148     
 H       -101.17109687585450        80.540809820898133       -105.88002306018709     
 H       -98.114838719196769        77.755033962004887       -109.35904766257126     
 H       -97.572720883437768        78.363769439834797       -108.43260637763913     
 H       -98.400750662919009        78.843948401613915       -107.67102245347708     
 C        28.283636441164095       -123.35712954931577        79.981757279903732     
 C        27.417307229934565       -124.60250321087315        80.172437627099015     
 C        29.290409095626067       -122.38617784278993        80.599416316394667     
 C        25.939424398637350       -124.46970102655831        79.803565203561192     
 C        29.206683417567003       -120.87654567660245        80.827104115026074     
 C        25.907350285782016       -123.95404297490040        78.364499897287047     
 H        29.004500743806894       -123.48051835275233        79.173530900325119     
 H        28.857982410394474       -122.53262741891153        79.559355746898675     
 H        26.691906458741119       -124.61691932670897        80.985878434400121     
 H        27.843139380266788       -125.60574268798581        80.189098002155532     
 H        30.331657120530320       -122.61627181471536        80.825158027861065     
 H        28.531719758505382       -122.09887450792628        81.327391092399495     
 H        25.537348543100403       -125.48077492700844        79.739032207869698     
 H        25.355705054036967       -123.81141255633288        80.447015329148016     
 H        30.018902205086292       -120.47316324961083        80.222386684908940     
 H        29.543332141436167       -120.59972031463467        81.826171387978022     
 H        28.291543774522847       -120.40174999251587        80.473284187297693     
 H        26.143355580407327       -124.93589209813945        77.954166194127538     
 H        25.025207180785699       -124.41499737546059        77.920152541685951     
 H        25.043827114120191       -123.28981534812124        78.399562520743785     
 C       -40.650387895203252        25.905710048217966        38.763234609342980     
 C       -39.195464898200335        26.367176567139357        38.853171947009947     
 C       -40.869538232456755        24.764953440935205        37.769007070869158     
 C       -39.134980728462992        27.261401574666039        37.614404743735321     
 C       -42.271454023140215        24.299253355022902        38.163464528637469     
 C       -37.709723809859554        27.608072325649783        37.182776351058308     
 H       -40.230797643842273        25.352700470052422        39.603606217481669     
 H       -41.449220781221975        26.078038077147173        39.484531426197229     
 H       -38.530449526718904        25.887725858155804        38.134853373186751     
 H       -38.760253643191341        26.605936246361583        39.823576481558348     
 H       -40.030262999969423        24.178676096414680        37.394846704742328     
 H       -41.267332502809509        25.540863809587645        37.114925395571170     
 H       -39.715665219572202        26.702219889031042        36.880769067442237     
 H       -39.667506761156780        28.167838677333883        37.902307255231669     
 H       -42.583161062566056        23.638301530323378        37.354711604091250     
 H       -43.082831446162444        25.026318638113288        38.197269306837136     
 H       -42.211199493373869        23.691925625627661        39.066582702883011     
 H       -38.695644967335582        27.837526140753628        36.778535896230771     
 H       -38.308108063822850        28.441410968224776        37.550992261522516     
 H       -38.124179992995799        27.825676190401257        38.167141426461491     
 C        42.336173828039222        1.7275961474390020        145.63798883240582     
 C        40.857622461275710        1.4227704809013457        145.39548496486503     
 C        42.655506940439672        1.4977858117873291        147.11550515807022     
 C        40.409730381829000        1.8804932894910191        144.00706013230632     
 C        43.857959297241855        2.3551883848414148        147.51149796865607     
 C        38.939300574399965        1.4648060824636338        143.95338291513056     
 H        42.633093260640607       0.70972626272222694        145.38524437268600     
 H        43.075421817766042        1.6372248554169579        144.84209594847772     
 H        40.354801312147309        2.0556686159657405        146.12672419909975     
 H        40.667485378457165       0.34986309396586002        145.36689139889350     
 H        43.060965808609922       0.53728149823295035        147.43352179852977     
 H        41.848430868908110        1.6384126513716024        147.83449914894877     
 H        40.790782030284539        2.8333482413793032        144.37443868969839     
 H        41.042838091338041        1.4055526943863226        143.25758959195571     
 H        43.779279210396219        3.4061626313097531        147.78963899472961     
 H        44.738964221964146        2.3645394430799405        146.86974810399377     
 H        44.303090619392997        1.9546287456076237        148.42227241684506     
 H        38.766366194440067        2.4660905859559348        143.55889212458183     
 H        38.729165180632158        1.1949703892028929        142.91842793603206     
 H        39.292391118854262       0.45593008904653454        143.73985005954103     
 C        35.652673155657837       -21.345433677755199       -79.543646849755021     
 C        35.043594157670341       -22.615492766722735       -78.948824477908374     
 C        35.298266928001674       -21.272513860627132       -81.029217422319164     
 C        36.005103994197661       -22.801868657700126       -77.774684899793641     
 C        36.661966347014278       -21.544176528016127       -81.665113964134790     
 C        37.413914183879960       -22.860775987823498       -78.365975627398711     
 H        34.780529650787450       -20.748824546858053       -79.276208515958430     
 H        35.853725749608117       -20.467426244896810       -78.929822125133427     
 H        35.560901039099477       -23.563564334960848       -79.095977128573594     
 H        33.965043222359419       -22.766082621482123       -78.995198694209535     
 H        34.968588613296241       -20.260657108802704       -81.264925097542232     
 H        34.706691030875099       -22.158897248292313       -81.258264303192604     
 H        35.487914913959273       -21.853484823234684       -77.629139524988162     
 H        35.637021720859018       -23.612281214714304       -77.145521181136459     
 H        36.467528721122413       -21.496630285813371       -82.736577101582824     
 H        36.955367210817940       -22.588696683099592       -81.560263562667330     
 H        37.430358565493954       -20.799832902308086       -81.456245638734202     
 H        37.405046012249819       -21.980092890687974       -77.723777391828563     
 H        37.868997998764797       -23.277330924098159       -77.467376336161550     
 H        37.113488392924147       -23.869138380178100       -78.081283505310140     
 C        11.033659895252795        112.19969160190493       -24.610686871241182     
 C        10.733909096829713        113.03433941738774       -25.856220278514634     
 C        11.477116829786345        111.76916053345278       -23.212176997971042     
 C        11.482755028857436        112.20828304881442       -26.902500171668510     
 C        12.981234168754336        112.00148863559919       -23.065562427165627     
 C        10.738493365318138        110.91869653308876       -27.250181339758289     
 H        10.143745632597104        112.32720591093687       -23.994332491946096     
 H        10.779260283420566        111.54016811767059       -23.780982316702858     
 H        11.575603132851604        113.63253891015171       -26.205231073729276     
 H        9.7455134908636545        113.47372080523569       -25.990823652537955     
 H        11.475463943626149        110.71090567440581       -22.951037312878498     
 H        10.951637520327683        112.20096313284967       -22.360403517071521     
 H        11.656915890451009        112.68951253644528       -27.864885791991849     
 H        12.464211362562398        112.07978941658715       -26.446065228681348     
 H        13.421757449948029        111.53978707520332       -23.949231365312880     
 H        13.517802129899691        111.51112641156766       -22.253318793264956     
 H        13.190840503472192        113.06946350858517       -23.125519653354093     
 H        11.236067218004324        110.47492216200244       -26.387867873400037     
 H        9.8902760251435264        110.53857596561015       -26.680852195261927     
 H        9.8615442992247591        111.45497053585888       -27.612769971249399     
 C       -145.72920712790759       -75.792258878766418       -31.491028882954982     
 C       -144.30588026545334       -75.244396911349568       -31.599789489552201     
 C       -145.94984436156088       -76.682208836254105       -30.267448364846963     
 C       -144.25586482206234       -75.037007483842572       -33.113833402126787     
 C       -147.08108779481842       -77.582371272081943       -30.765280671951995     
 C       -142.88754174872153       -74.494334777854320       -33.527402327417676     
 H       -145.70592610906985       -74.829738549396453       -30.980037089956859     
 H       -146.62627642551902       -75.417378674152033       -31.983808250421333     
 H       -143.52330782841941       -75.892770626144511       -31.993860447430006     
 H       -143.90803864348197       -74.621170595283388       -30.798908101572035     
 H       -146.29765739751119       -76.064869499241212       -29.439186195870086     
 H       -145.08526470120484       -77.342002359539947       -30.194822314724316     
 H       -144.41307508214447       -76.007338537268836       -33.584835023670387     
 H       -145.02471203004427       -74.370679571066404       -33.504961447692622     
 H       -146.97121782534856       -78.080666438219851       -31.728468289555629     
 H       -147.94638900988591       -76.939355876081336       -30.926168964921157     
 H       -147.39306587556953       -78.306618703817335       -30.012794558473239     
 H       -143.73058614054932       -74.910336652384871       -34.079053047642446     
 H       -143.74479947266786       -73.888312273380990       -33.820567607770784     
 H       -143.61815244003262       -73.937464744896758       -32.940713523855088     
 C        73.785825092692320        62.163492281735031        26.587215567424998     
 C        73.755070617130585        62.546528114550114        28.067140785352507     
 C        74.115802603667504        63.179161393236356        25.492970566822962     
 C        72.239676955526079        62.551081306455686        28.270616117806785     
 C        73.661291945687864        62.419744193466542        24.246155994211350     
 C        71.756359365321913        61.418438583794924        27.364323940216128     
 H        74.711029480332769        61.662291817840817        26.871635894657249     
 H        73.914963445441145        61.081337476541648        26.568130527883351     
 H        73.463959796361735        63.560837163938018        28.340145664227197     
 H        74.544719611673059        62.192234063266156        28.729734321474513     
 H        75.009057737612949        63.803368240189421        25.469282850652473     
 H        73.100628529818309        63.540499513323802        25.657154577338837     
 H        72.540792220093209        62.450072012067444        29.313317719974535     
 H        71.851728497497390        63.536162203290147        28.011363968189293     
 H        74.563333887465930        61.966240728247961        23.835358168267231     
 H        73.364286930583944        63.211812393818590        23.558757967454532     
 H        72.930787650629668        61.617460821280289        24.350102686178626     
 H        71.779139185794534        60.785359214258527        28.251336642923953     
 H        70.739592208207512        61.025889710235695        27.378105450027732     
 H        71.160576393714464        62.090185522472325        26.746344418255681     
 C        125.17604958770474        34.902044366799167       -112.53641405123001     
 C        125.61741607487809        34.791422148177716       -111.07668827261693     
 C        123.76249054451313        35.146960206142602       -113.06528829780213     
 C        126.66597925680986        33.724937280035043       -110.75893654201019     
 C        123.42241515748550        34.255919880537732       -114.26037700896616     
 C        126.88360418468548        32.801935291857120       -111.95833125543039     
 H        125.54669458529274        35.921329360596275       -112.42787650229585     
 H        125.45102621401334        35.564238064302558       -113.35738140095498     
 H        125.33810223505422        33.833495878696056       -110.63798445308649     
 H        125.47312441519981        35.576258697607003       -110.33418474453904     
 H        123.23792610781727        36.102203032845139       -113.04423317326815     
 H        123.50369743453962        34.243764657150656       -112.51269084379076     
 H        127.07320054380565        34.735831388666305       -110.73986261292964     
 H        126.65384508541696        33.266984956116076       -109.76988017249403     
 H        122.34091527789047        34.145028533841113       -114.33886900357530     
 H        123.87493155447059        33.278535846598992       -114.09289750016977     
 H        123.77291849479477        34.729612467440013       -115.17736269874503     
 H        127.79635281779046        33.397696543939503       -111.96597342190481     
 H        127.41190647952993        31.989079922481160       -111.46007146845814     
 H        126.18325398612816        32.155296581316122       -111.42968396255999     
 C       -47.904302343597699        112.42405889745680       -105.04220963734296     
 C       -48.851713441424195        112.76435981575578       -106.19305648103892     
 C       -46.487024044560982        112.03952170041538       -104.61642294705224     
 C       -50.346990417739569        112.60287844455351       -105.91753606239452     
 C       -45.960172188289704        110.77498435843788       -103.93729586430682     
 C       -50.580685627630366        111.90161045479441       -104.57908518342536     
 H       -47.823049723586500        113.24050964497096       -104.32463998120072     
 H       -47.438904106742704        112.31721589402200       -104.06236826859082     
 H       -49.372600779883051        111.95254870038963       -106.70073661907691     
 H       -48.559122804071720        113.43029412189260       -107.00485828669716     
 H       -45.632936713612359        112.71595397216382       -104.58364759359424     
 H       -46.566954566374548        111.14792397135818       -105.23832697977998     
 H       -50.036984723402824        113.64681121208700       -105.96444808493911     
 H       -50.998596819631700        112.32897099557401       -106.74728530797891     
 H       -45.457845718668906        111.13069194730825       -103.03771812387249     
 H       -45.178531695398938        110.19488917280056       -104.42783405783113     
 H       -46.800110721797751        110.16109276033583       -103.61211841063212     
 H       -51.052712293650394        112.74790021637513       -105.07816875516708     
 H       -51.365431929079058        111.77159682968814       -105.32431647397577     
 H       -50.587976333161343        111.39885707747486       -105.54618697406706     
 C        145.81320712019425       -16.565084888891938        102.68024980006223     
 C        144.79977143702195       -15.565191386505660        103.23792540096204     
 C        145.24273086746410       -16.985219361976661        101.32530150968478     
 C        144.39336146928974       -15.990267157720176        104.64930147331937     
 C        145.93069427092436       -17.186834025518717        99.974783459044389     
 C        143.70036158021426       -17.352292100189157        104.69910277484718     
 H        146.43097219369122       -15.796981027326813        102.21497269729724     
 H        146.83008129482587       -16.599380495073873        103.07126221353515     
 H        143.72642222000988       -15.748504171490357        103.18875335198862     
 H        145.02890385485523       -14.502743796448598        103.15544241392448     
 H        144.18279124991244       -17.042384307386268        101.07759167596897     
 H        145.94267971200387       -17.820730531907088        101.31567209761938     
 H        145.33072250495843       -15.929500699031962        105.20225867449032     
 H        143.70848107767273       -15.211738111260422        104.98535418387542     
 H        145.36126400029210       -16.562624891093350        99.286152924338069     
 H        145.87006650252496       -18.172258553105404        99.512871353200353     
 H        146.91347669724212       -16.722611637466937        100.05685843367908     
 H        144.75112765353933       -17.633149572863417        104.77058479274402     
 H        143.59383395577220       -17.455098358417896        105.77900217750827     
 H        142.85300536423540       -16.768773147920907        105.05909313385818     
 C       -128.92815907899200        50.494340674972435        113.49247616483491     
 C       -129.97924617381852        50.985327913881996        114.48846230625556     
 C       -129.52565597621989        49.855292057398223        112.23850034013866     
 C       -130.56755088469131        49.830534751984615        115.29975215823340     
 C       -128.56601564425355        49.892856155146532        111.04874390631538     
 C       -131.52792704762084        50.481713819143572        116.29548525002930     
 H       -129.14728925818804        51.535336967504733        113.25497104579304     
 H       -127.87963396791285        50.786196508964089        113.43318665174786     
 H       -130.76928442814392        51.366572275569936        113.84147521013995     
 H       -129.53895167639087        51.619018562213057        115.25831743170255     
 H       -130.58271238526177        49.856487100481608        111.97254857382771     
 H       -128.91731277977073        48.991492156413074        112.50658297642183     
 H       -131.03054905898671        49.133722807719749        114.60104925388542     
 H       -129.88402192382588        49.147564031444162        115.80417184357009     
 H       -128.93731504292725        50.592945611880580        110.30033798663889     
 H       -128.52232215811924        48.892535194203539        110.61799001537241     
 H       -127.59116817590143        50.250513179824630        111.38018608121445     
 H       -132.28367654780558        50.329138141000307        115.52498976173236     
 H       -132.08031244894769        49.671454020095403        116.77135226407340     
 H       -130.93186280757624        50.020763386630797        117.08309689580865     
 C        62.863714001154904        4.4206211585826161        40.611453593191129     
 C        62.789317234106107        4.5087388186726924        42.136098267603629     
 C        62.017285648536216        5.1844796842456269        39.592669949859072     
 C        62.008347953285352        3.2331831199812795        42.453723220564306     
 C        61.225575828722462        4.2531796559435069        38.674129274070310     
 C        61.486924430297485        3.2269444308402448        43.891053937008067     
 H        63.703220212507816        5.1018329720090065        40.750305302859523     
 H        63.656051804314821        4.6018389057361686        39.885188511470197     
 H        62.059959616114924        5.1844819295228053        42.582762244024195     
 H        63.714783682804338        4.4009874544043672        42.701784985221700     
 H        62.276604298783830        6.1474191164808802        39.152668236236906     
 H        61.188256716316879        4.9734776474116735        40.268161763482098     
 H        61.125687052981291        3.0416578552645905        41.843536596873456     
 H        62.723571382169219        2.4487008296902113        42.206452137201296     
 H        60.250557668758724        4.7289044720789217        38.568652402704529     
 H        60.962422761306918        3.2562014631032721        39.027519925615735     
 H        61.684230843754072        4.2429628392413594        37.685376925740783     
 H        61.534924844417382        2.3703471850623012        43.218716920071792     
 H        62.400534841894043        2.6417578387538487        43.995804330948985     
 H        62.495893175982253        3.5978740119317902        44.071312923908238     
 C        33.205978430883206       -130.33041760133312       -93.974389627086282     
 C        33.943378901199488       -130.77260679541695       -95.238727482860156     
 C        33.759415386767174       -130.95583240948253       -92.693606709109488     
 C        33.412251744138672       -132.10778712921314       -95.761258171189198     
 C        32.909928842092071       -130.33470602163737       -91.584365697994954     
 C        32.125232437051324       -131.90535126567022       -96.561534358428318     
 H        33.952632107286313       -129.55608563472543       -94.150509727158394     
 H        32.565666515474248       -129.45740097625321       -93.848125572151545     
 H        34.959464991350437       -130.94157520555780       -94.882190329362743     
 H        33.753554771807998       -130.09654028420957       -96.072394602831679     
 H        34.779414728592911       -131.28234912885031       -92.490904453738963     
 H        33.021884617196740       -131.73732093761589       -92.876429227370508     
 H        34.385767990517785       -131.84897435257670       -96.177649765630989     
 H        33.462750579001053       -132.97644225226071       -95.104761248184531     
 H        33.074464789064173       -130.98288278260080       -90.723613282840986     
 H        31.826125012651584       -130.35627454438674       -91.698401299065537     
 H        33.376788505656108       -129.38178561482957       -91.335197477746007     
 H        32.794159280509639       -132.45713983689936       -97.221963148780802     
 H        31.759397372183638       -132.91892790534638       -96.397439628569401     
 H        31.860577326242467       -132.17627777098221       -95.539449980177949     
 C        108.25412557321920       -138.72321136110196        102.40548124158228     
 C        108.80733200479963       -138.34111858897361        101.03223371926691     
 C        108.77772721446871       -140.06279470372567        102.92432485490254     
 C        108.19418333284591       -139.05359703205812        99.826305007856050     
 C        107.59616327818527       -140.94111554456299        103.33699944625516     
 C        106.95873035752787       -138.32266642349623        99.299771674384147     
 H        109.11256031506204       -138.08505297997530        102.61510873725170     
 H        107.79111738016914       -138.06725627182243        103.14266938673961     
 H        109.43168140811694       -139.05902325946275        100.50034960894021     
 H        109.30285651651110       -137.38678594543279        100.85389514983677     
 H        109.31320464007401       -140.09822376743048        103.87306545526289     
 H        109.44969772741443       -140.62709814949795        102.27770494520247     
 H        108.83634211920983       -139.16605609948110        98.952757635984426     
 H        108.02186885574322       -140.06024130182965        100.20719224171432     
 H        107.17310219140333       -140.43408554692223        104.20420171953893     
 H        107.81085521008252       -141.93803629929408        103.72191033484259     
 H        106.85284970579657       -140.85033688450594        102.54494882527021     
 H        107.10740911230809       -139.40247694016557        99.297821055097245     
 H        106.78549941613079       -139.00500992132933        100.13193653563992     
 H        106.97941200355798       -138.17087317484166        100.37895240863467     
 C        38.951738886704369       -83.314701915990270       -97.421089150297391     
 C        38.872906211001798       -84.662608952356976       -98.138565983675903     
 C        38.315923301563174       -82.318041985103008       -98.390753279702707     
 C        39.119318908200050       -85.851170202555423       -97.208811269024793     
 C        38.699523248736682       -80.952907892524124       -97.818825738865058     
 C        39.606299262546599       -87.082138496033238       -97.973930966472579     
 H        38.006435776493880       -83.451733393093164       -96.895994478213666     
 H        39.100261925716438       -83.269456447247265       -96.342203735822409     
 H        39.882453496929784       -84.972853139398026       -97.869005557182220     
 H        38.702474525064979       -84.888365884433782       -99.191223022173773     
 H        37.402119286594989       -82.435843395383145       -98.973149223647027     
 H        39.257310866471727       -82.400141145835363       -98.934029642220310     
 H        39.862986064879820       -85.706431297377677       -96.425159709932103     
 H        38.160904814094053       -85.958362497247592       -96.700822800151784     
 H        37.845051652722439       -80.636219243201353       -97.220756780340324     
 H        38.633817529838829       -80.228159974160846       -98.630320191955931     
 H        39.693410625213211       -80.941627842832659       -97.371432557850596     
 H        39.052489620251244       -87.095148442170071       -97.035194822028231     
 H        38.526280669151930       -86.996579212933852       -97.854183689637054     
 H        38.843108469172080       -86.608173247486292       -98.591180294822095     
 C        127.02232809707107       -29.568311007317686       -97.330163632767309     
 C        126.56911798939348       -28.705617288224961       -98.508383095451336     
 C        126.61394882746303       -30.375167963818214       -96.097260892998094     
 C        127.44710236523530       -27.463821860328512       -98.666270875324045     
 C        125.09514301538434       -30.415791227052217       -96.268782870681449     
 C        127.22756178532090       -26.705000677267279       -97.357136328299134     
 H        127.54472341676086       -30.466833786049396       -97.658584049201409     
 H        127.58855807012799       -30.212496793442913       -96.657476225801204     
 H        125.55256746813141       -28.370094564307436       -98.303079627085324     
 H        126.67978136276207       -29.094757520972703       -99.520521162756310     
 H        126.87610377244924       -29.810718558601192       -95.202402438948454     
 H        126.93745881689730       -31.401885604550568       -96.268410566231935     
 H        128.20932990105143       -28.222361426267451       -98.844391152409457     
 H        127.13702968414508       -26.923780493687893       -99.560871504839866     
 H        124.63531278108263       -30.822319269459719       -95.368010432196698     
 H        124.86775235551583       -31.064078641301368       -97.115019803868307     
 H        124.71802377634903       -29.401950407731800       -96.402976351143508     
 H        128.19675209025249       -26.210555827046235       -97.422667933136793     
 H        127.11563970011839       -25.661672417687299       -97.652161042123822     
 H        126.17907277890052       -26.422683080835935       -97.452360148132669     
 C       -58.066798803236694       -100.10608260872810       -94.716446934699121     
 C       -58.588449430242207       -98.669425972610043       -94.758151621095976     
 C       -58.350925907740887       -100.69845593569512       -93.335792541790866     
 C       -57.671335995947466       -97.627945654543751       -95.400072718830444     
 C       -57.829136160881717       -102.13077908007588       -93.217356817136732     
 C       -56.202269680036451       -97.964024546024774       -95.141739495140058     
 H       -59.001428439383425       -100.50387141129325       -95.111834751464698     
 H       -57.976726870845717       -100.70693377453118       -95.621413768587587     
 H       -58.132959556560373       -97.927120367739235       -94.102704138293092     
 H       -59.652686112558250       -98.439296899643367       -94.707744906986179     
 H       -59.402113599820581       -100.65557020828746       -93.050721922433794     
 H       -58.076660859174972       -99.982367921073418       -92.561133466554409     
 H       -58.259416972918409       -98.180900525261038       -96.132535412784975     
 H       -57.962622576543041       -96.579030622222916       -95.345032601570793     
 H       -57.936847966821325       -102.37047846944826       -92.159508881704483     
 H       -56.768078986973350       -102.30419372964496       -93.396758720322723     
 H       -58.544394356818110       -102.76405510276246       -93.742206520366906     
 H       -56.648723533905986       -97.773839346759161       -96.117756122623121     
 H       -56.392288966109099       -96.989636757137916       -95.591807332999451     
 H       -56.384324585575399       -96.984063733493002       -94.700567435460471     
 C       -57.363437355645516        126.25255240311419       -140.30077691253007     
 C       -57.654480779534069        127.71239465048228       -139.95149860199459     
 C       -56.621131646388704        125.32133983613278       -139.34178457953780     
 C       -56.475302678983084        128.68237153540747       -140.03227441938785     
 C       -57.055993797774562        123.92188196042351       -139.77796540013486     
 C       -56.275330571417832        129.15135460759203       -141.47376912661889     
 H       -58.432636216024960        126.13459983837039       -140.12470589907454     
 H       -58.077194972399163        125.99116352279950       -141.08201051723333     
 H       -57.119727184607854        128.03180248145631       -139.05700587962241     
 H       -58.652448930532131        128.15066560446849       -139.94265993317936     
 H       -56.330596711674950        125.51249075464213       -138.30875466461308     
 H       -55.826936018798506        125.35112674418659       -140.08775111005647     
 H       -56.712405690244694        129.54238653327994       -139.40597072842309     
 H       -55.531401767721214        128.27874069667837       -139.66589581465027     
 H       -56.610229205045350        123.00682748234922       -139.38800503711857     
 H       -57.126710971870573        123.69424042967530       -140.84158113176602     
 H       -58.094727055950109        123.76010746594122       -139.48993372441018     
 H       -57.176291329770031        129.27801449367857       -140.87349676134852     
 H       -56.316632974830284        130.10417348377695       -140.94600945454499     
 H       -55.450972677210615        129.68376970737944       -140.99935558860301     
 C       -43.139973853793869       -106.18837743469857        94.800986831398404     
 C       -43.873155410236770       -105.11564784450569        95.606925423548361     
 C       -44.151310404903938       -106.93364820028125        93.929430305623484     
 C       -42.696806127728934       -104.44271620030479        96.314884705304138     
 C       -43.427077338384237       -108.26353153002462        93.717916869626904     
 C       -43.309924030278161       -103.49382031913160        97.345187594878951     
 H       -42.914436534231925       -105.49098128108606        93.994220734406227     
 H       -42.084798844005974       -106.08916298052084        94.546306198838309     
 H       -44.383196507232313       -105.41196249726322        96.523525499935729     
 H       -44.354214778279385       -104.30372165977001        95.061528577005660     
 H       -44.734212354583320       -106.48373943461492        93.125746635619706     
 H       -44.556914903724611       -107.29171644532212        94.875671365001907     
 H       -42.205210343937999       -105.21102857656585        96.911650643947311     
 H       -42.013652861624621       -103.89490844400446        95.665802053869854     
 H       -42.783604156316052       -108.37876920099902        92.845699920205021     
 H       -44.196584783472574       -109.01667447564226        93.548405728187632     
 H       -42.893592058127510       -108.58896012471418        94.610995643978498     
 H       -42.548985488329933       -103.72928832770546        98.089248948457254     
 H       -42.591018923222364       -102.68012688264571        97.440991640905096     
 H       -43.575210959114386       -102.64456473441597        96.715514835841631     
 C        100.83765585329583       -139.09429144954188       -87.762740272772504     
 C        100.67830976559759       -137.58991833553608       -87.540678733209418     
 C        101.67821565770505       -139.78514201987650       -86.688484426781102     
 C        101.86157471901699       -136.80882473754616       -88.113057810275251     
 C        102.41193934687276       -140.97453960612111       -87.308826331734238     
 C        101.79045962535538       -135.30671131530073       -87.836581933997408     
 H        99.892712276146099       -138.98658486555607       -87.230217095406744     
 H        100.22511794984185       -139.74339656542179       -88.388487750706602     
 H        100.65247360473674       -137.41352106483569       -86.465357163820400     
 H        99.883449747412087       -137.06037147381267       -88.065919293515464     
 H        101.18075922337330       -140.33286121091865       -85.888084028204844     
 H        102.38017506397854       -139.17130135079569       -86.124079715910284     
 H        102.72271838509253       -137.31711536483738       -87.679269703114997     
 H        101.81952240545242       -136.99200915752084       -89.186731448958497     
 H        103.35257546860727       -141.05399101756731       -86.763857486121651     
 H        102.78945523547162       -140.65540892178120       -88.280287802117243     
 H        101.78210737744635       -141.85822551624790       -87.411349061064186     
 H        100.92769510335856       -135.52753128995838       -88.465052986591388     
 H        101.01764727014287       -135.39442709415721       -87.072928228096217     
 H        102.06312708578257       -135.81801370578222       -86.913368899119845     
 C        26.584281612186228        36.042394408814936        138.01724291135540     
 C        28.043271804841968        36.342668801459553        138.36224132708548     
 C        26.388209024312449        34.573305854752590        138.39297588335123     
 C        28.759880404662781        36.867889991744782        137.11787172816321     
 C        24.905756504131944        34.386597160313194        138.06845234202575     
 C        28.295397564835262        36.121199053716381        135.86705227973525     
 H        26.207122277571482        36.370858605835664        138.98572735621454     
 H        25.865721136696138        36.853004597664317        137.89607364074305     
 H        28.839510470503985        35.626033593842529        138.16090090228388     
 H        28.248297177278360        36.927916609670781        139.25865059813424     
 H        26.833433282285604        34.085883594814582        139.26032525051599     
 H        26.652674639749375        34.372959021891880        137.35469889502744     
 H        28.133189776787106        37.622169732116504        137.59370869647907     
 H        29.820843154877647        37.105784556555214        137.19445037968467     
 H        24.495843906039454        34.479795340227220        137.06277564558258     
 H        24.160789054053868        34.920706913840405        138.65824067777845     
 H        24.612752202662517        33.361318332162703        138.29439883995900     
 H        28.312620956571173        37.203954734336392        135.99132383308290     
 H        29.154978513881016        36.778034302173765        135.73368057284534     
 H        29.366516751502061        35.942801166366166        135.96180384607345     
 C       -15.380253335550654       -93.267712043709039        79.032605098003089     
 C       -14.704885054170912       -94.457878778940952        79.714676787143375     
 C       -16.274129320700922       -92.453340324721765        79.968353689498343     
 C       -15.867157324940417       -95.416973686039299        79.973715431300292     
 C       -17.373824437997236       -91.718400092979934        79.201297872153063     
 C       -15.579457661506616       -96.853975056090945        79.537714369738410     
 H       -14.414482570746216       -92.928973570351431        79.407629202983628     
 H       -15.094588598286323       -92.786431812938503        78.097262917364105     
 H       -14.426383284865024       -94.355222173894376        80.763484871919815     
 H       -14.007404649361293       -95.042253634498095        79.114570874074602     
 H       -15.723788307551462       -91.755350836053083        80.599254179680770     
 H       -16.559635474045436       -93.058584774600689        80.828740473404835     
 H       -16.057690077481812       -95.287903286619908        81.039144003341548     
 H       -16.694948477414759       -95.010439016388716        79.392689251665900     
 H       -18.123259311425851       -91.090133975891291        79.682680173657545     
 H       -17.980032702573236       -92.269381965544284        78.482249519283499     
 H       -16.920624503820395       -90.987372101045210        78.531739872456782     
 H       -15.272365880467570       -97.036832419610178        80.567451115953176     
 H       -16.207850331562714       -97.703562976585744        79.804965207554503     
 H       -16.402505472155390       -96.862609797029862        78.823139159981537     
 C       -93.822601270446413        58.270252727870677       -19.757627070301584     
 C       -95.337388893574811        58.322964880106028       -19.958825597995499     
 C       -93.293776049305606        59.694649694617382       -19.586518362372711     
 C       -96.137591607580447        57.128186353012147       -19.439190353251114     
 C       -91.791821509297421        59.471975515854275       -19.766489943076323     
 C       -95.321915877479015        55.838497054389521       -19.535188106068457     
 H       -93.925550807286797        58.147574271949345       -18.679456675877521     
 H       -93.333275027316105        57.392588067774284       -19.335294792019585     
 H       -95.686860862034663        57.538481976927216       -20.630060227788523     
 H       -95.894664706042803        59.237311646573907       -20.162574601307085     
 H       -93.810931274022138        60.411619044947962       -18.948862134675835     
 H       -93.451235697039095        59.778627953353336       -20.661810945926533     
 H       -96.122390095982908        57.381141904462389       -18.379057184388301     
 H       -97.112890618853612        57.101661620095335       -19.925182465006113     
 H       -91.366258399730057        60.474011496115821       -19.820525538095279     
 H       -91.429221572489510        59.013892321341018       -20.686697057223135     
 H       -91.385258218235293        59.000496705039943       -18.871775424098463     
 H       -95.093019389103262        56.851138350941824       -19.203127984759011     
 H       -95.545635168339018        56.182349653115878       -18.525329189569085     
 H       -96.261870060138577        55.932508502240751       -18.991360974335745     
 C       -87.305244218555217        101.77395062601946       -65.759028514646545     
 C       -88.744170471974854        101.27162620206227       -65.636544649693136     
 C       -86.315892968962714        102.91133343213866       -65.503322633572878     
 C       -88.924586536677523        99.799801067228969       -65.263688444959129     
 C       -87.061756517268378        104.10432641844622       -64.904744065689030     
 C       -90.377869913431098        99.348213177453346       -65.411596341372416     
 H       -86.602597879862657        101.13605461210528       -65.222859868929689     
 H       -86.223686266313564        101.84229542414131       -65.875910832675515     
 H       -89.132605945352012        100.60169749161965       -66.403625769840730     
 H       -89.576911062463793        101.94630386517849       -65.437916393417154     
 H       -85.872505964134874        103.43683177898953       -66.349111879154833     
 H       -85.433711948626666        102.68807412722236       -64.903312645916188     
 H       -88.354900026559690        99.078794873227935       -65.849953992349967     
 H       -88.516797135947243        99.758676763823232       -64.253680208230733     
 H       -87.749587312932121        104.02047641828486       -64.063341732971836     
 H       -87.607325450034054        104.77698541696938       -65.566548018156610     
 H       -86.341727571567461        104.80793235058994       -64.486895936865963     
 H       -89.675243443732498        98.650798278778879       -64.955495004728959     
 H       -90.345959984932065        99.747644001562605       -64.397921472146379     
 H       -90.368371873937051        100.43319469348381       -65.307553704402309     
 C       -66.555183280186242        9.4128710576841161       -140.75466568427004     
 C       -65.699432567182839        8.3205578212138036       -141.39683659144109     
 C       -68.031748752358297        9.3121792579759060       -141.13866642367142     
 C       -64.246031021647653        8.6831253963255008       -141.70344644134028     
 C       -68.809815841809211        10.434926395372639       -140.45172276372386     
 C       -64.469288864450945        10.021957052024732       -142.40738299095580     
 H       -66.631059098726908        8.7874981947068740       -139.86514241417831     
 H       -66.226336573101776        9.9159655788267784       -139.84534960190805     
 H       -65.416446379035520        8.4243210023395321       -142.44433457819918     
 H       -65.943936541853731        7.2628018389051618       -141.29952223649246     
 H       -68.628389976479369        8.4812766700148199       -140.76220908935895     
 H       -68.277026329989923        9.2884518102947240       -142.20044603534490     
 H       -64.477664653857730        8.4865532959782843       -140.65663931444968     
 H       -63.781642957997278        7.8723290363359339       -142.26474230307349     
 H       -69.814770755158676        10.350737191567656       -140.86533815332814     
 H       -68.519315349794965        11.415951547800269       -140.82762054555826     
 H       -68.910537684417505        10.338588250816564       -139.37067045960856     
 H       -64.483014190377247        10.443086658830520       -141.40211615512953     
 H       -63.503254438564277        10.526214590122592       -142.43191488430094     
 H       -63.852908352883610        9.6326856819514788       -143.21771801371378     
 C       -96.426845189999753       -85.106651496595816       -103.79995637130665     
 C       -96.212675510902983       -85.693802333035734       -105.19538684408541     
 C       -96.006123379023663       -86.219096090626792       -102.83907079086282     
 C       -95.200718433247175       -84.977383878018458       -106.09010939404008     
 C       -97.216543438686983       -86.913951049046304       -102.21465024409807     
 C       -93.804739941014716       -85.048693814731038       -105.47043210532408     
 H       -95.436795433361709       -84.652941348330060       -103.75469496312071     
 H       -96.503225549046931       -84.028574033197657       -103.65848176120842     
 H       -96.533579572711915       -85.008183080985233       -105.97963607569490     
 H       -96.487765231672711       -86.709663985076659       -105.47902517470436     
 H       -95.621821622399651       -85.630113870620477       -102.00629705149180     
 H       -95.285757270592725       -86.847510427612960       -103.36277694368864     
 H       -95.191393311023617       -85.488992424620122       -107.05253842525283     
 H       -95.436005419142546       -83.932595529797979       -106.29298214809090     
 H       -97.902523175443989       -87.458670588393574       -102.86335070116586     
 H       -97.850472391579004       -86.129387853875443       -101.80149808788995     
 H       -96.940045808728016       -87.540788886409004       -101.36687468765258     
 H       -93.932802362480174       -86.129309379042326       -105.53343975525159     
 H       -93.110530854747410       -85.244742029416926       -106.28758497892150     
 H       -93.580314676929916       -84.130294921582220       -106.01290492506647     
 C        3.5300053785893430       -7.3499734783168371        47.574917357392117     
 C        5.0137265180187658       -7.4195979452259069        47.937636225675611     
 C        2.7350984522252828       -6.4304334335558844        48.502500283334300     
 C        5.4172727038168560       -8.4791601202904729        48.963462415749682     
 C        1.3484957269215181       -6.0989322803002226        47.949977894890495     
 C        4.4677006997425179       -8.5619095600246045        50.158998486208453     
 H        3.7765521880554642       -6.5802577099856707        46.843581379645450     
 H        3.1908939897528512       -7.5892952849901931        46.567034164547742     
 H        5.1905962352910651       -7.1608428122321719        48.981601212717401     
 H        5.8117263376076647       -6.9959082769229317        47.327895830830499     
 H        3.1630036184753600       -5.6656538584286471        49.150658717456281     
 H        2.2259880013117739       -7.3432162519752060        48.811909560501121     
 H        5.4837275864638748       -9.3869977030213239        48.363867043324461     
 H        6.4098700905206520       -8.1763401989488464        49.296854936529826     
 H        1.4083941857119071       -5.2141011218470554        47.316269856536842     
 H       0.68831963898691617       -5.8958032981431261        48.793189720421275     
 H       0.99766186483881003       -6.9248087833214340        47.331153506918120     
 H        3.9660304371690587       -9.3436879610277970        49.588692057763133     
 H        4.7853748132359559       -9.4204864968603932        50.750630793298733     
 H        5.3234791722756380       -8.3035468417903662        50.782690634937225     
 C       -65.196295167429810        26.340387291665660        74.549868163072873     
 C       -64.735259892114797        27.723669445886863        75.010105011584983     
 C       -65.736407218028219        25.481427970555490        73.406054907723188     
 C       -64.549902833644524        27.474602028388059        76.507251986734545     
 C       -67.156222982304413        24.979751752440215        73.671168705851656     
 C       -63.553964787731665        26.340259580474701        76.750594497527075     
 H       -64.407374398324620        25.594214797812413        74.644370236261338     
 H       -65.371033138581822        25.268227972160133        74.460196192096305     
 H       -65.483397517986432        28.506871110137961        75.132519251035603     
 H       -63.759077432944110        28.076029169234729        74.676922759130591     
 H       -65.136564944194006        24.835937279141540        72.764470121197533     
 H       -66.273611303866517        26.383030620988936        73.111734588073844     
 H       -64.216639965083019        28.465897119117500        76.200055317233804     
 H       -65.428746470059394        27.516489312603088        77.150664287932500     
 H       -67.604423952787769        24.650468717162660        72.733731536335995     
 H       -67.753450694167455        25.800600727612931        74.068190170867467     
 H       -67.070613361226251        24.108115192075068        74.320029796956433     
 H       -62.780663502306375        27.108327039513320        76.763915313575623     
 H       -63.076157335153304        26.151840432943388        77.711998812300322     
 H       -64.267369933432605        25.763281754210873        77.339024335238719     
 C        36.712567394388607        140.51244859246842        147.74550451556533     
 C        36.466170271162056        139.00424703526011        147.69593162053218     
 C        37.785790872957151        140.97095571735179        146.75767679155072     
 C        35.093797469733126        138.63998885887781        148.26316153465706     
 C        38.697509825230554        141.88634148241914        147.57540440706677     
 C        34.979227433574607        137.12335206515789        148.10654900182109     
 H        35.873313748804186        140.64089920625548        147.06194489006435     
 H        35.947742022710493        141.18986836610574        148.12529996188420     
 H        37.217967440994464        138.61148010973568        148.38050094905307     
 H        36.405836700763736        138.63996847483406        146.67037763118825     
 H        37.532739881001710        141.59837357518612        145.90303532797509     
 H        38.290501321713613        140.08463643683586        146.37322190953319     
 H        35.050551951926401        139.00190317049478        149.29041408416984     
 H        34.214270883886932        139.14284610997456        147.86108239418556     
 H        38.045053828770648        142.69705900244821        147.89965459888450     
 H        39.494574464019315        142.41365559154576        147.05125953004941     
 H        38.959989543975638        141.33410787133008        148.47775826514405     
 H        35.538561237588326        137.65151855444876        148.87874442830264     
 H        34.411162118662375        137.28406836023203        149.02283063939768     
 H        33.921714504726850        137.37146230289270        148.19714533124318     
 C       -38.045019052417928       -128.05389039751552        94.835430703065271     
 C       -38.259889318186588       -126.92138823653612        95.839975666540056     
 C       -39.113267941716330       -128.91761481801828        94.164114558239532     
 C       -38.181326894308327       -127.38776742729826        97.293990584788915     
 C       -38.565613319744010       -130.31907114504290        94.435841836650383     
 C       -37.765043223599058       -128.84099817848971        97.064492677843489     
 H       -37.959630387015423       -127.22726319429390        94.130096561382004     
 H       -37.577208533000658       -128.10892029330930        93.852463218444001     
 H       -39.111258198950949       -127.39139574588123        96.332280459015678     
 H       -38.485059814097667       -125.86812721754593        95.672525907372744     
 H       -39.600222000872876       -128.68464255266167        93.217172278139842     
 H       -39.598370380223251       -128.90530631305126        95.140139222933072     
 H       -37.572783830342473       -126.52044363119279        97.038012732977975     
 H       -39.132724149851079       -127.19197953615958        97.788571586216250     
 H       -38.240051316758333       -130.69832745819187        93.467196433634612     
 H       -39.450980363167297       -130.88913401587104        94.717361923511717     
 H       -37.720800783135701       -130.43652626500835        95.114514124977944     
 H       -36.999496641516828       -128.49606775058584        97.759518847236464     
 H       -38.306936097277791       -129.31007727263403        97.885721570210933     
 H       -38.816173122631533       -128.97093993301857        96.806925090508315     
 C       -143.65783676102652       -65.103243426760102        93.017852057571559     
 C       -144.39740311839529       -64.113781284622220        92.116826391585207     
 C       -142.18030267412075       -64.919557282633932        92.670011097310507     
 C       -145.34245366670970       -65.060261869820906        91.375951933277605     
 C       -141.32786061422865       -65.741043744434222        93.637659628084421     
 C       -146.17953865645100       -64.195516865407200        90.432900654927835     
 H       -143.57887430120650       -64.404550827574482        93.850734759524059     
 H       -144.13938032102371       -65.508610880288316        93.907735793009707     
 H       -143.89559154754733       -63.753040519222225        91.218967137499050     
 H       -145.06239014683163       -63.389690417129081        92.587554156718099     
 H       -141.70267253982468       -63.956417648764493        92.849820766708959     
 H       -141.87398051547407       -65.122481769198771        91.643810121451665     
 H       -144.32228885044992       -65.351796342743711        91.126209423232893     
 H       -145.82750755245200       -65.711361310612020        92.103201737471068     
 H       -140.36573139103342       -65.850436427616330        93.137219339298412     
 H       -141.60408258343594       -66.775428603291616        93.842230874971406     
 H       -141.15155213856292       -65.163962870195306        94.545400229363850     
 H       -145.44031020840242       -64.428787262522306        89.666593819844607     
 H       -146.80806895820055       -64.600744611101263        89.639906238975684     
 H       -147.11749916291845       -64.487773075237271        90.905040872977082     
 C        43.508015806499060        89.591006334238628        52.138816306345895     
 C        43.111929201799455        89.940190516645572        53.573747237153029     
 C        43.841365846694160        88.099285601099311        52.177389857889082     
 C        43.207872030026728        91.443957072751331        53.833212241891182     
 C        44.077512287560673        87.814508830366194        50.693820450033947     
 C        43.133213535508339        91.743238116104578        55.330776252638515     
 H        42.484906824015965        89.384222184597363        51.824828505020591     
 H        43.220385154439064        90.239719691209103        51.311447206444790     
 H        43.813486354394527        89.441976076639250        54.242851051631561     
 H        42.075992318957610        89.802373518438770        53.883491039173684     
 H        43.416989771818365        87.449830967977064        52.943035757585648     
 H        44.869750056620219        88.431727389257588        52.318840889869314     
 H        44.111465112548949        91.035421929348516        53.380753990410021     
 H        42.679244278327239        92.119107144622930        53.160289449346550     
 H        43.101310463358708        87.548350637993167        50.288493791557407     
 H        44.676138782468016        86.903630741406317        50.700709839578785     
 H        44.471810682083586        88.606717361695331        50.057397304635920     
 H        43.939944846663131        92.474191942803444        55.276085847542411     
 H        42.745420345298371        92.759867534528766        55.395437245419295     
 H        42.054708833609091        91.754621986102151        55.488250065511686     
 C       -147.78987778971194        69.567351356353086       -52.852670094570399     
 C       -147.68271278947628        69.257185302590443       -54.346040002469238     
 C       -149.06095057529180        69.838997267206352       -52.047422692517927     
 C       -146.18608524161482        69.016115007219170       -54.545619506565984     
 C       -148.52902514936955        70.789174793786898       -50.974082509065298     
 C       -145.65764628833034        68.005025096243159       -53.527635998562161     
 H       -147.70266143572684        68.484663425931544       -52.761674681154851     
 H       -147.49593016360973        69.031641723555367       -51.950057215324634     
 H       -147.74248565526014        70.090180761184840       -55.046501115328411     
 H       -148.14872827181850        68.335754934974645       -54.695175548401863     
 H       -149.84794894652111        69.088590656993873       -51.972432672003826     
 H       -149.21619217775836        70.656416578856266       -52.751571635195432     
 H       -146.78212823945069        68.700337161486289       -55.401842016836305     
 H       -145.55154833492037        69.871285476342280       -54.778313412719768     
 H       -148.23299539935996        70.214271542640745       -50.096613126543019     
 H       -149.32423007116608        71.475577116416403       -50.683219978697721     
 H       -147.63232522762064        71.258129573509791       -51.379188278983797     
 H       -145.62022627679644        67.894701516712331       -54.611392603453481     
 H       -144.91350020766339        68.431961324090054       -54.199999019375390     
 H       -145.03029506584755        68.892641979093725       -53.445986194469704     
 C       -1.8124617547059569        114.62045178827123        34.616376856080606     
 C       -1.1174156783737104        113.78953138569848        33.537338749078124     
 C       -1.7946448626190634        116.05192397286770        34.079337892205309     
 C      -0.60405198361788970        112.46135343091927        34.094332393681832     
 C       -2.8785779842353820        116.86145088714004        33.366879930967769     
 C       0.25470221411157334        111.85925248188882        32.981742342273527     
 H       -2.8107724255755322        114.45039050403557        34.213195784628006     
 H       -2.4512141611713827        114.14152179947578        35.358482951198226     
 H      -0.25636515450169095        114.35687231286737        33.184045290534563     
 H       -1.7117679420735428        113.38631751037607        32.717421717322303     
 H      -0.90646993218511240        116.67488510574340        33.973674538308579     
 H       -2.6547644529798449        116.27487475594901        34.710675569527687     
 H       -7.3902430546392672E-002   112.67166445721463        35.023208419714358     
 H       -1.3295676517152075        111.73705056107248        34.464619362867694     
 H       -2.5337404781217105        116.92427867659833        32.334775458371411     
 H       -2.9994288808768301        117.90853214707683        33.644577418797866     
 H       -3.7695393683972593        116.23383543072097        33.347216184899501     
 H       0.20069658588530903        111.70322735463967        34.059164948067497     
 H      -0.47271774668526312        111.18555017891674        33.434605862681742     
 H      -0.83529166946070532        111.86225287143512        32.983815155394929     
 C        109.48254694860610       -28.287478059766208       -61.351115932392290     
 C        109.07926186627773       -29.345224619632383       -60.323315203677559     
 C        108.75681455629196       -26.980419109374072       -61.030569045134115     
 C        108.34791950832467       -30.325759128147986       -61.240665427460009     
 C        107.44866132798055       -26.854290750757240       -61.812021489682195     
 C        109.43507772902279       -31.147017301105539       -61.934540728090198     
 H        110.34961126179044       -27.984147460092441       -60.764353598041865     
 H        110.44023414526738       -28.331730301383981       -61.869745865089790     
 H        108.02386587664031       -29.323406603135496       -60.051721196933116     
 H        109.77248548522033       -29.623524804170604       -59.529533146208557     
 H        109.37147430886996       -26.092563343799725       -61.178911684861980     
 H        108.73210219396395       -26.824518551315830       -59.952058793845225     
 H        107.83678800568889       -31.040889639809251       -60.596124613496627     
 H        107.69525552807397       -29.869518559307743       -61.984959928178164     
 H        107.05241481165000       -25.845791676281291       -61.693623052279868     
 H        106.72347289445005       -27.558695175029460       -61.404570673861514     
 H        107.69195249616423       -26.991598530121554       -62.865613440151911     
 H        108.38049772558533       -31.127316321768273       -62.209445799962417     
 H        108.93793796629102       -30.401026821252287       -62.554581219643858     
 H        109.65967052867063       -30.098142492848400       -62.128240702072041     
 C        10.886113376836557        82.131499666481332       -78.939294136155638     
 C        11.894501367950651        81.160309518157334       -79.553935752664046     
 C        9.4382383929213827        82.382747749526189       -78.516951420300714     
 C        11.376673672541417        80.254300513034465       -80.671452253346047     
 C        8.8383144143254189        80.988120664671811       -78.698466290169122     
 C        11.720155049332263        80.803957623382189       -82.056276648293661     
 H        11.158048597375396        82.413626205573067       -77.922162937937003     
 H        10.414236115507055        82.951447421026927       -78.397890789488315     
 H        11.797834327090728        80.096712184081753       -79.335953591373098     
 H        12.969151130144274        81.336390414810438       -79.506783236812794     
 H        8.9818226670739367        83.082232784429536       -79.217312306605152     
 H        9.4450767232168928        82.540801181211975       -77.438493081519795     
 H        11.757720025508830        79.233129974674725       -80.682144126798093     
 H        10.313626814380727        80.178558925874540       -80.442772138335073     
 H        8.0393410599002095        80.840696537769333       -77.971824985572241     
 H        9.6122910315035384        80.243014599333634       -78.514408753929757     
 H        8.3902067219153551        80.960419703472326       -79.691709550389987     
 H        11.108719366261230        81.605905461277231       -81.642602844027863     
 H        12.625161195063201        81.357264904602459       -81.805448209906046     
 H        12.572887378484896        80.129860548082718       -81.975402090203104     
 C       -14.021517752679467       -24.221072435321837        30.864118076950025     
 C       -13.255597484283665       -24.770779008310392        32.067874624626370     
 C       -14.528009761406411       -23.975644665079169        29.442473972285715     
 C       -13.718350690042946       -23.781137608308843        33.137599006299631     
 C       -13.344742324059757       -23.631806698302807        28.537214463834676     
 C       -12.863263262088665       -23.810412645807734        34.404804366812883     
 H       -14.856929775494701       -24.912222069268346        30.752319382964018     
 H       -14.916640863753772       -23.991409387652450        30.286095994413749     
 H       -12.391352089071036       -24.172934887362512        32.357291804580555     
 H       -13.160823367822690       -25.847860344341569        32.205764595266864     
 H       -15.124835865471015       -23.088310701494720        29.231435925392340     
 H       -15.132768590122241       -24.755717904804378        28.980032022897060     
 H       -13.721465697256578       -22.829855380029461        32.605478380704042     
 H       -14.739207053313796       -24.084032339001496        33.370423232709605     
 H       -12.719188323273924       -24.524394564676797        28.545519671335150     
 H       -12.646859707851817       -22.854153785662824        28.847562346676167     
 H       -13.697214371545019       -23.498730889841820        27.514397619171177     
 H       -12.863768674391313       -22.721640673813372        34.353081242571996     
 H       -13.238823751784119       -23.545427893660523        35.393155210946681     
 H       -13.363299529212897       -24.698845383897186        34.790486864584672     
 C       -79.968434651624293       -106.03599746677932       -50.689642317541548     
 C       -80.176791831418484       -104.69610055096169       -51.396115597082442     
 C       -81.208158726598484       -106.53445759218251       -49.946364008088729     
 C       -79.095111617245038       -103.66840522507412       -51.061973065496673     
 C       -81.135515412479762       -108.03422109907228       -50.234935505088622     
 C       -78.155023277077362       -103.66170141322428       -52.267804682221495     
 H       -80.302089315643471       -106.24678765244950       -51.705684671597275     
 H       -79.189305918084330       -106.77435934770210       -50.879063004644323     
 H       -80.214970250573813       -104.10965343598033       -50.478116559327624     
 H       -80.978324993583456       -104.36919772074488       -52.058519607791510     
 H       -82.168338588155422       -106.01933533327991       -49.918014256045133     
 H       -80.533192483498283       -106.65305011252923       -49.098745930402465     
 H       -79.589090918116355       -102.71856677513455       -50.857299442654671     
 H       -78.538349058877685       -103.78247691061271       -50.131863859150322     
 H       -81.361446719917865       -108.13875903627057       -51.296126698705450     
 H       -81.986649480595759       -108.44092960704644       -49.688804545505384     
 H       -80.197705226902215       -108.56285996046091       -50.064192974365120     
 H       -78.220119197230304       -102.62279427062829       -51.944486882036216     
 H       -77.246095136015029       -103.59226063098973       -51.670203147984203     
 H       -77.909387030099410       -104.51801859455927       -51.639725319143139     
 C        61.530597708104054        54.483544743535987        126.62840686713930     
 C        60.661928088065615        55.141526935575200        127.70093356898944     
 C        62.927343304220422        54.239331775216982        127.20051059153872     
 C        59.905154070596801        56.404110079328966        127.28739061550486     
 C        63.940438097052898        54.191825976555556        126.05629763358372     
 C        60.803006975215915        57.098431052298054        126.26288122287035     
 H        61.205937300682621        53.483564903900998        126.91604544682244     
 H        61.094478650869981        53.882890775675619        125.83021202491432     
 H        60.988190971073209        56.088123806469383        128.13175475618399     
 H        60.281915255469634        54.585663766186634        128.55808371077359     
 H        63.166447900146650        53.269173341400986        127.63608104986049     
 H        63.279955296584220        54.916396248191496        127.97855206798872     
 H        58.927913959486744        56.099716101621475        126.91262933186646     
 H        59.588014172691807        57.099003444221182        128.06498020394943     
 H        63.750079913083759        55.103190038729636        125.48948267928316     
 H        63.824772960341640        53.411687462389828        125.30389781709424     
 H        64.923510988058709        54.320685741161036        126.50913631375246     
 H        60.486587678360074        56.305292623727802        125.58545210915419     
 H        60.147059645248319        57.687577129350665        125.62199122631341     
 H        60.532724193901579        58.036397025597445        126.74792455632270     
 C       -91.390392392227056        3.6508548698649164       -143.11918311220037     
 C       -91.394230200107998        3.5270120931260527       -144.64315463660233     
 C       -90.151395344540560        2.9460225909814626       -142.56606578787569     
 C       -92.718584064241085        3.9560937812724979       -145.27546519499663     
 C       -89.982214401116906        2.0429753664505985       -141.34388550624342     
 C       -93.799279790479829        4.1439691215059122       -144.21027011528187     
 H       -90.867320034003072        4.6065168428069221       -143.15390359716139     
 H       -91.887826701495825        4.4779485609768424       -142.61265066079113     
 H       -92.249871629943456        2.8528396943648517       -144.68148637742718     
 H       -90.622724028922235        3.1584952683344976       -145.31922680237716     
 H       -89.125621775115647        3.1306457202674141       -142.88513140802414     
 H       -90.681494228393305        1.9974132712086756       -142.65112786759431     
 H       -92.434495624647340        4.9702601945099687       -145.55628573903127     
 H       -92.974967360542394        3.2741595742062315       -146.08622619514534     
 H       -89.582281243067314        1.0791684070581011       -141.65889264380314     
 H       -90.958349907945731        1.8777510217876157       -140.88785873055699     
 H       -89.239537063118263        2.5137527284368009       -140.69975891097383     
 H       -93.921549821335020        4.2826252373656262       -145.28447886932909     
 H       -94.163481360355206        3.2551220815510411       -144.72544787731610     
 H       -93.534109279174174        3.1056745872276368       -144.01094866389909     
 C        36.261550522849930       -21.642532321662475       -23.290274043033140     
 C        34.732917534306381       -21.674255574980400       -23.301036084444874     
 C        36.853148643301715       -20.437513283641270       -24.022245140496477     
 C        34.413024264031122       -22.698026919686857       -24.390715584194361     
 C        38.120796815227109       -20.310237188173090       -24.867650422793382     
 C        35.297738200762133       -23.891073833369010       -24.027726251801553     
 H        35.914227961533697       -21.125067910748214       -22.396015895637493     
 H        36.933813334673253       -22.178644937476580       -22.620388976511983     
 H        34.208109274382466       -20.849719946127234       -23.783547521841076     
 H        34.239485981672075       -22.069118337678525       -22.412943362326171     
 H        36.527231831268651       -19.404330484537027       -23.902196984529137     
 H        36.816116415105981       -21.011125950452577       -24.948364542492929     
 H        33.398473184801603       -22.523247924094264       -24.032611799475557     
 H        34.625381855380105       -22.255565289758909       -25.363974038083072     
 H        38.894958001152986       -19.810132815051045       -24.285696866011435     
 H        37.901982475281670       -19.700705625560168       -25.744401001059018     
 H        38.467458013411573       -21.322185799788468       -25.077140355663953     
 H        34.447396893776592       -24.482709483606342       -23.688629117596111     
 H        35.042420575546402       -24.662052824120732       -24.754709259325498     
 H        35.992251602858659       -23.899653341034661       -24.867772393591817     
 C        96.161980092884946        42.518834577104840       -107.86635212679667     
 C        95.805563868701412        41.057143686028191       -108.13887407835709     
 C        96.119826447346199        43.384475028787371       -109.12600707328637     
 C        96.345851103863353        40.420313418267064       -106.85810173466439     
 C        96.530091546380532        44.744168493149296       -108.55965261567063     
 C        97.448606304188132        41.344005957188536       -106.33987011495987     
 H        95.122887478227739        42.687357760383620       -107.58353330279793     
 H        96.050742767215738        42.942821629809139       -106.86837353791773     
 H        96.656566592989364        40.434902988208989       -108.41584136411984     
 H        94.856097555976461        40.808802927331804       -108.61315307868442     
 H        95.429563443914660        43.158168436313964       -109.93867079983113     
 H        97.158312718671837        43.078894113582976       -109.25354760880153     
 H        95.291764261370915        40.644629713642388       -106.69475233782910     
 H        96.553688687117941        39.367793982248791       -107.05073203920978     
 H        96.873426878948493        45.300464408416452       -109.43186565809789     
 H        97.454423811033720        44.680054176925417       -107.98554527190579     
 H        95.722630142333102        45.328024100890254       -108.11781699386260     
 H        96.596221502462882        41.511447989936997       -105.68146047687365     
 H        97.722306958282928        40.695674943138620       -105.50749109803894     
 H        97.890987513623443        40.379443825422157       -106.58890572359158     
 C       -6.5530942075871641       -30.550901863047610       -77.090290829648396     
 C       -7.9705477043315707       -30.769249075089093       -77.620376711212757     
 C       -5.7221343829216709       -29.592362567125491       -77.943841758395493     
 C       -8.4446906309399132       -32.216427533883270       -77.483614541340685     
 C       -4.6530119645183330       -30.476085668745188       -78.587154945181183     
 C       -7.2592205615185605       -33.169278563343369       -77.326845337725601     
 H       -7.2004341204788842       -29.813619083786040       -76.615459129588558     
 H       -6.1798939125125418       -30.750587532275148       -76.085827206220102     
 H       -7.6844944870051544       -31.531354482053157       -78.345269053583110     
 H       -8.6577214466102195       -30.069107318536613       -78.095449092593398     
 H       -5.1262230583685984       -28.803177007546733       -77.485392381276782     
 H       -6.3885240098244687       -29.120030777712405       -78.665594882042313     
 H       -8.8707505168974450       -32.145675953634665       -76.482831287887080     
 H       -9.1317200815601041       -32.454743788015506       -78.295584955265383     
 H       -4.0332794720661331       -31.173691040571804       -78.023791610740616     
 H       -3.9202607476850555       -30.023519275696987       -79.255256233768392     
 H       -5.1271568739253457       -31.168504218957835       -79.282743312315176     
 H       -7.4719131456131525       -33.110551594016620       -76.259412459044128     
 H       -7.6768846272098843       -34.166980134736377       -77.191759109663579     
 H       -7.5507749661361379       -33.597095866911353       -78.286047281216540     
 C       -77.241630042693856       -32.196209963519081       -137.29118597500045     
 C       -77.528519295987650       -30.699006832290703       -137.17320995970718     
 C       -78.216638123199303       -33.351524177167192       -137.06216803612003     
 C       -76.780798378491696       -30.035370938817401       -136.01634276196293     
 C       -77.351057928587252       -34.443917528987839       -136.43344803767653     
 C       -76.484297414663857       -31.043075127782515       -134.90528002551261     
 H       -77.383658835169157       -31.999910712232801       -138.35391568588560     
 H       -76.890471756826130       -32.833238608624534       -138.10296327877609     
 H       -77.901169188450908       -30.754034991830707       -136.15036883839090     
 H       -78.193310266194416       -30.063617090093807       -137.75838755926426     
 H       -79.098088342626127       -33.613720994626803       -137.64731619398430     
 H       -78.392677349098832       -32.878514514990364       -136.09605620519105     
 H       -75.822280007532555       -29.890326133563285       -136.51464434877582     
 H       -77.313791019131273       -29.137645608159364       -135.70312057988178     
 H       -76.731025577038650       -35.062079704517309       -137.08270551315923     
 H       -78.033553202686221       -35.170354062966723       -135.99232425303182     
 H       -76.750937186977282       -34.068339328071438       -135.60465607307242     
 H       -75.657305910551230       -31.218809157415208       -135.59324989580568     
 H       -75.839089527437352       -30.427610165493281       -134.27837521296883     
 H       -77.077282870022401       -30.359475532060994       -134.29769478430026     
 C       -28.802699788223663        47.220836106976869       -104.42579560995944     
 C       -27.873648018541211        47.802957184808321       -103.36003819854056     
 C       -28.450613811695511        45.952665088030471       -105.20401064288670     
 C       -27.931443498641254        49.279952844460979       -103.75117038416451     
 C       -29.502816112785741        45.991547831589827       -106.31270338205159     
 C       -29.032928925959272        49.902123257487979       -102.89240686648868     
 H       -29.397989624758871        46.930425006229228       -103.56012164395027     
 H       -29.789253320955059        47.630258660706581       -104.20857377197729     
 H       -26.888005701511009        48.082376575423680       -103.73223979334945     
 H       -27.909689750648592        47.420129230934549       -102.34011480295617     
 H       -28.152210197288813        45.006141012072788       -104.75329179412017     
 H       -27.798635932326992        46.605939386161907       -105.78388783323261     
 H       -27.011925453638057        49.739465077569193       -103.38863070447096     
 H       -28.127342916378264        49.475668547534255       -104.80540890034968     
 H       -30.449020398149916        45.755480333844098       -105.82580557798343     
 H       -29.377032028938530        45.091597794025162       -106.91467375040723     
 H       -29.434586238948555        46.884042459114958       -106.93471466347860     
 H       -28.450688312615107        50.805530900847856       -102.71088429118511     
 H       -29.411544968911883        50.736983648412362       -103.48211696974407     
 H       -29.921680130723935        49.625466974640432       -103.45957755548652     
 C        68.774222713125923       -51.710877767561257       -134.29388226693709     
 C        68.430465288224667       -50.527305855326915       -135.19877414111784     
 C        69.978198207456018       -51.850914168174683       -133.36185554223664     
 C        67.210952797038274       -50.879353153719670       -136.05123697627997     
 C        70.475562909743331       -53.048041015632357       -132.55108011946163     
 C        67.252285118483314       -52.346472415016912       -136.47983196407827     
 H        68.043066458654977       -51.242613559311764       -133.63491401142099     
 H        68.254500914206375       -52.207044140345459       -133.47424318906678     
 H        68.773515800882819       -50.476702935907191       -136.23214518387536     
 H        68.371198350941711       -49.536923838955303       -134.74740855466010     
 H        70.589751078739823       -51.027276652407728       -132.99344773313845     
 H        70.331237299472392       -52.676543758064390       -133.97975456751067     
 H        66.945802217421985       -50.592969780884360       -135.03350438401549     
 H        66.867278037987703       -50.151932688648209       -136.78666011416766     
 H        69.877875389536058       -53.959479256782338       -132.53883960270042     
 H        70.468266775704947       -52.743371621737587       -131.50455092160928     
 H        71.513442503510191       -53.294785156880359       -132.77473899772264     
 H        66.358069789609047       -51.765509747117754       -136.25408598046644     
 H        66.800865554031773       -51.883289087909425       -137.35720392189637     
 H        67.764222235186054       -51.899519806322871       -137.33203718276752     
 C        19.735480108571100       -2.3898877479163856       -115.93672315996707     
 C        20.697184347779331       -2.5610471074527195       -114.76042796147875     
 C        20.276248033819648       -1.4478596275385343       -117.01282445214289     
 C        20.109084708466515       -3.4708016622136326       -113.68138836772052     
 C        18.988466223684103      -0.76174225199726653       -117.46966369500014     
 C        18.756228332306836       -2.8281425589298830       -113.37380114033513     
 H        20.151527806138724       -3.2997431898867049       -116.36935163763522     
 H        18.981825440460629       -3.1464956195665215       -116.15501015050221     
 H        20.857039162098513       -1.5786516128066692       -114.31607955163612     
 H        21.630923675287523       -3.1012508162118229       -114.91666750008699     
 H        20.694155260114101       -2.0420210130536098       -117.82549031357330     
 H        20.836323388222119      -0.66682834555122739       -116.49862043011566     
 H        20.298056957748891       -4.2273733268528275       -114.44295825478378     
 H        20.796769727452936       -3.5063390053354313       -112.83644670188927     
 H        18.570196199402787       -1.4405662611726011       -118.21286490504879     
 H        19.076521239624203       0.17437753919972820       -118.02104928151851     
 H        18.305796324876681      -0.79011969190711129       -116.62039545020892     
 H        19.061374569672857       -3.8427202494499317       -113.11764136735512     
 H        19.180091285640664       -2.9159645348977921       -112.37343746941623     
 H        19.408209744161823       -2.1185467961399969       -112.86439552760403     
 C       -146.11845177359362        15.174903940182890        22.951281668860027     
 C       -147.05426000843147        15.821415061702165        23.973107126062132     
 C       -146.73767079178415        13.806490870503039        22.665179593954299     
 C       -146.39111814032046        16.523726996965525        25.158367354174452     
 C       -145.72620386950700        12.815789836761692        22.087869209474512     
 C       -145.38057779806263        15.646566397491245        25.898123000117803     
 H       -146.62509670000918        15.616272207646972        22.093024722490522     
 H       -145.42843509113180        15.785075752239628        22.368471765023546     
 H       -147.15811625588643        15.359236562887386        24.954791878851864     
 H       -148.07199207700509        16.117321864087906        23.718626195661464     
 H       -147.77051910487316        13.632217354524011        22.363595239689687     
 H       -146.26777355912941        13.505957887638306        23.601649848403294     
 H       -145.97604702134939        17.425043623551812        24.707319432778743     
 H       -147.21590961628888        16.782262130435303        25.822429578294489     
 H       -145.91787445745985        12.815608964538850        21.014853721888116     
 H       -145.81341729891238        11.759244557761548        22.341258037449357     
 H       -144.71723070093151        13.202303593912255        22.231675584345762     
 H       -145.16505052998306        16.272776143154520        25.032380970452756     
 H       -145.17193948079722        16.716393451940295        25.904453641816097     
 H       -145.67433817188527        16.439059644333248        26.586424725709186     
 C        107.66475605173002        136.61861844862364        61.250788222858453     
 C        107.13174655604621        137.35176174791241        60.019430145546039     
 C        107.26860931712380        137.02376030197732        62.670918101670175     
 C        108.14476677728159        137.41661802761425        58.876003452290995     
 C        108.56787616890242        136.89333673259938        63.466365359770919     
 C        107.56182878856075        136.56769280187206        57.745804264526797     
 H        106.97973747318696        135.83806480398752        60.919751155469726     
 H        107.99191302209755        135.64306339528414        60.891120838771975     
 H        107.92382714297484        138.10041549874137        60.004399862484412     
 H        106.17410755190186        137.84640061982427        59.857072713162580     
 H        106.30453450009253        136.89481289253200        63.162885928308675     
 H        107.52166128892104        138.03280286764135        62.345498635291513     
 H        108.12155765066832        138.43578384633366        58.490176662280049     
 H        109.14817060744835        137.06904580084515        59.121918804096801     
 H        109.41063936639807        137.16069074711683        62.828892273781612     
 H        108.68887339280954        135.85626577386307        63.779324715834143     
 H        108.52142804606682        137.62274749312380        64.275007779801044     
 H        108.39619258584568        137.26293431405398        57.653196409456989     
 H        108.60423459672484        136.37041169472610        57.995944734228857     
 H        108.01990381947796        135.87802782659520        58.454767918126144     
 C       -9.9320043396891808       -128.50478441083840        144.74881090565975     
 C       -11.436700234345752       -128.77627911292723        144.74414489233186     
 C       -8.5449018965602814       -127.95755641966463        144.41068464404549     
 C       -11.600257237732325       -129.47669793090392        146.09340524187851     
 C       -7.5986121666367739       -129.13684714004032        144.63795132413108     
 C       -10.809417250484621       -130.78375232975387        146.15682341611142     
 H       -9.8317038094020361       -127.61834428631602        145.37512052852742     
 H       -8.9885222353871566       -128.18835394184569        145.19357306211228     
 H       -11.812344471328862       -129.61174224843174        144.15338876898903     
 H       -12.111998840635954       -127.92281209168186        144.80469121926367     
 H       -8.0872892520448421       -127.17298813496785        145.01329834978847     
 H       -8.5634469289381645       -127.60693595227214        143.37878279308055     
 H       -11.273844426070749       -128.91864967785256        146.97097961270924     
 H       -12.682368676276811       -129.57367202079905        146.18133081743619     
 H       -6.5798018221738044       -128.84326415280159        144.38509875224054     
 H       -7.9122302250408376       -129.95235815187868        143.98627229024387     
 H       -7.6102695675271148       -129.41330840488672        145.69224413127714     
 H       -11.664413127003224       -130.52712421618531        146.78230242295277     
 H       -11.862221616292885       -130.88055685781464        145.89162195958090     
 H       -11.319296987844865       -130.76959661213226        145.19353620795880     
 C       -89.561897960550994       -80.570090888422015       -62.781624392893619     
 C       -90.566873823997810       -81.456639987046941       -62.045489072713515     
 C       -88.328574009918256       -81.453275477880297       -62.973295776716043     
 C       -91.517286614712219       -80.629426017163880       -61.179305802232896     
 C       -87.464877910311287       -81.498781606555227       -61.712423302275795     
 C       -92.459228499791152       -81.619001477626966       -60.492773324379627     
 H       -89.938856596316697       -80.831283458585702       -63.770452305403452     
 H       -89.895223237172473       -79.679535155824567       -63.314451545398754     
 H       -90.005692720736164       -82.117786464256397       -61.385139843012766     
 H       -91.320772060251898       -81.991529641297134       -62.623096628697674     
 H       -87.722464324018148       -81.174831842868116       -63.835386377090636     
 H       -88.616168339885945       -82.396605415274834       -63.437535132131167     
 H       -90.505116362206294       -80.458743847802381       -60.812592188717964     
 H       -91.918075589508803       -79.813024945441512       -61.780103227502551     
 H       -87.684017108243680       -82.406780097364674       -61.150625628313591     
 H       -87.709849652907209       -80.628688187956044       -61.103304008770657     
 H       -86.412535803928279       -81.531281769379405       -61.994593184536583     
 H       -92.185248630011372       -80.629487910016408       -60.126852766144999     
 H       -93.156712888024387       -80.836064640056065       -60.790473519905738     
 H       -92.975519705839929       -81.517675972568654       -61.447381365972042     
 C       -46.024520636911362       -24.061516335410555        125.03949825885164     
 C       -47.150112453453922       -25.089293674852467        125.16015398006753     
 C       -45.331127329627805       -23.921913506565843        126.39506370442416     
 C       -47.776498749788921       -25.399123122281662        123.80019559686119     
 C       -44.056999534765900       -23.093437464147407        126.22753172890347     
 C       -48.928507160056590       -26.366025621351422        124.07554470017610     
 H       -45.308437961983458       -24.817853260599264        124.71812609047080     
 H       -45.529515970346289       -23.866429325094810        124.08817735304299     
 H       -47.926210504165333       -24.659522468508680        125.79345369270804     
 H       -46.902573749987269       -26.111754581085680        125.44545779548488     
 H       -44.867593641410316       -24.795753985365103        126.85292761014220     
 H       -45.919400723270854       -23.531466552346465        127.22547664210758     
 H       -48.263948205853687       -24.485180103325728        123.46078267327286     
 H       -47.099298081787857       -25.828927424328334        123.06211187226855     
 H       -43.902373381377224       -22.598319068396151        127.18620185417075     
 H       -44.307592225450449       -22.228712839761549        125.61307696673144     
 H       -43.236662703488868       -23.657237053222246        125.78337239603925     
 H       -49.152877188914886       -25.914616601311455        123.10911419434011     
 H       -48.551209277577009       -27.143617296133140        123.41139300447804     
 H       -47.993487112452108       -26.848647381427806        124.35999807397138     
 C       -54.688741173924846       -111.59340204347664        148.29925168779147     
 C       -54.452656154787732       -110.08494402547521        148.21764772949368     
 C       -54.466272380836244       -112.51546592811761        147.10002407882212     
 C       -55.844448039680607       -109.58787062956272        148.60966084399072     
 C       -55.474335845257755       -113.64520763995735        147.31293888861208     
 C       -56.687207524527381       -110.44282228326605        147.66274212838448     
 H       -53.768805747053698       -111.57286024209334        148.88354342132237     
 H       -54.643554675868025       -111.83922235405096        149.36020905160700     
 H       -54.891359741621230       -109.61189839612184        147.33908810445695     
 H       -53.511362828895379       -109.66257469329150        148.56931664590562     
 H       -53.540668176119247       -112.69687525232902        146.55372055239809     
 H       -55.210763904994273       -111.88920911433057        146.60846044866557     
 H       -55.232491622375548       -109.98100629988222        149.42148199268328     
 H       -55.884171455692517       -108.50366308049223        148.50470324552947     
 H       -55.669997935398122       -114.42141770820345        146.57313203008232     
 H       -56.483211905751219       -113.40202514880453        147.64630270001771     
 H       -55.152265252882991       -114.26372931842359        148.15067483504785     
 H       -56.686582559615950       -110.70919976939793        148.71969178084959     
 H       -57.404537547422258       -109.71486551181805        148.04170986209996     
 H       -56.632597042386188       -109.43460888755345        147.25210431300485     
 C        119.29479035980653       -88.292660773387283        69.934263032768598     
 C        119.53470881574538       -87.407339235004883        68.710953639148229     
 C        118.00848717375752       -87.753408582446042        70.560739076411707     
 C        120.98478894221967       -86.999110238066152        68.972597675164948     
 C        117.66336916146848       -88.483355444701289        71.859165869064029     
 C        121.83058474949495       -88.242726421124971        68.697117750817227     
 H        118.74110507906919       -89.047276273561877        69.375614604444095     
 H        119.77890479352644       -89.265726382146624        70.017187685861941     
 H        119.54056537344420       -86.339163188087099        68.927899816968619     
 H        119.12747356140628       -87.697163569002569        67.742314750141574     
 H        117.15481543164408       -87.765847653220902        69.883103597779737     
 H        118.02857858296285       -86.663630357489509        70.569673427959870     
 H        121.26397050054004       -86.300356862219175        68.183990470770567     
 H        121.19004106156861       -86.625142341375351        69.975652830799461     
 H        117.53879531715492       -87.977309270326913        72.816505170569215     
 H        118.24594106738475       -89.357935816171690        72.148681340966249     
 H        116.68071745358364       -88.945303490334240        71.763773661401018     
 H        121.35945131886389       -88.410219342114743        67.728572780633996     
 H        122.49617054187495       -87.955539507492972        67.883103490426492     
 H        122.80390913385715       -87.919679774197732        69.066415056801929     
 C       -8.9242371667006939        4.3238607949358112        143.31402026611275     
 C       -7.9211461403811709        3.6709422226778958        142.36252316631794     
 C       -8.4066594364511396        4.4638622086619906        144.74592592045653     
 C       -8.2247875177740450        2.2064277906774050        142.68007674475945     
 C       -9.3913294815894286        5.4885857364675106        145.31002496650527     
 C       -7.6422069452325276        1.4086605332633897        141.51302566321701     
 H       -8.4049995306478795        5.1555855172794676        142.83786243944783     
 H       -9.7930816213240028        4.9281372757311264        143.05313853855856     
 H       -7.0146220314254677        3.2307509791405855        142.77790938316434     
 H       -7.7030867471548508        4.1442738541070527        141.40517931518855     
 H       -7.4012514487200312        4.8840229518088814        144.71909803363528     
 H       -8.6493594183876041        3.5356883383039364        145.26331361877197     
 H       -7.7925656433660926        1.9797659774015051        143.65470930209941     
 H       -9.2583239058676305        1.9192913352498597        142.87361036437841     
 H       -9.0932534117580079        5.5943319742495490        146.35313007968156     
 H       -10.389471469484388        5.0668125603331982        145.42800794465754     
 H       -9.3327856230569424        6.4834758697859716        144.86858839605898     
 H       -7.8529565772493140        1.0171839358724122        142.50822945642682     
 H       -8.6067612021396123        1.0644783405579339        141.88621953269902     
 H       -8.6631275285906266        1.6723704465423515        141.23684054501973     
 C        54.073537791916003        55.586904215961169       -27.805698446038150     
 C        55.215295377106656        55.307936764336688       -28.783659476751414     
 C        53.936516714910148        57.062925004780517       -27.430960189295419     
 C        56.391762088752351        55.185194195802161       -27.814793530893649     
 C        53.433617463020795        56.949926565617787       -25.991458596666973     
 C        56.006761570942999        54.118143702956004       -26.789601452809041     
 H        53.608148560673321        55.592976171043304       -28.791333270478944     
 H        53.216975019271899        54.950517441848632       -27.583410080173941     
 H        55.635776007230298        56.143171605686106       -29.343729829151581     
 H        55.211885919958881        54.358191441681434       -29.318516634577058     
 H        53.172692399134263        57.518407465139013       -28.061204705591933     
 H        54.946608730670441        57.462054629928538       -27.338712114832752     
 H        56.753523131159113        54.916863707116903       -28.807379846723023     
 H        56.682638094759177        56.183681697259765       -27.488428831514184     
 H        52.968663058015665        57.888847584037364       -25.690884811427697     
 H        54.290709077470659        56.748817300968120       -25.348769669300580     
 H        52.672872175510811        56.171494547389628       -25.933061537868145     
 H        56.990185031279509        54.255469250193649       -27.239178939127385     
 H        56.671689134472629        54.747974030489516       -26.198598014876154     
 H        55.744678683238106        55.010793273238519       -26.221632012488321     
 C       -32.427864208432354       -74.412702663769920        65.300643780616426     
 C       -32.649752221542869       -75.218577572699957        66.580945440693029     
 C       -32.864766946089134       -75.147007157434658        64.032671456766607     
 C       -31.389864042022172       -75.982364593817209        66.989787762695784     
 C       -32.897152681448269       -74.051768707196160        62.966254537305083     
 C       -31.533869407899669       -76.728474416767099        68.316597300525430     
 H       -33.417330078103873       -74.160681626577500        65.682144372900694     
 H       -32.278391959578833       -73.336923132338399        65.208684692325235     
 H       -33.432286941823754       -75.950673129912090        66.381507463326699     
 H       -32.810691861126067       -74.686060284267569        67.518294762724224     
 H       -33.515277316735030       -76.017701909615823        63.950046198692561     
 H       -31.798253978040563       -75.316238759270277        63.884311174503303     
 H       -31.195906562324488       -76.615198992342386        66.123761746107959     
 H       -30.618714380290136       -75.216765226514013        67.075145016112657     
 H       -31.937546984615608       -73.535081991355199        62.949177608210448     
 H       -33.671963872144403       -73.329640578475420        63.223739704125165     
 H       -33.022138314354528       -74.547474106918258        62.003573506439245     
 H       -32.436157872940093       -77.035911138333972        67.787959306958015     
 H       -31.048388667837933       -77.665556772571989        68.044044387364778     
 H       -30.449447352570168       -76.623637849432228        68.350332790997612     
 C        20.247494179811461        27.276148950788759        63.651637615269351     
 C        21.091454165371491        27.798101728174949        64.814882140168876     
 C        19.887172973554001        28.352087542843197        62.626764117426461     
 C        19.994649941251815        28.173183502175281        65.811965450564969     
 C        18.879491559077145        27.598012093251590        61.758553588811168     
 C        20.520125619691676        29.203700596634384        66.811840857501110     
 H        21.295952882962858        27.150169263369168        63.381520094583770     
 H        20.124422034250546        26.241996135694247        63.329952619605955     
 H        21.508493821319178        28.802724423838399        64.744802476990714     
 H        21.711867021345451        27.085621249478130        65.358535910388909     
 H        20.775346182921567        28.597540212224708        62.044525898877119     
 H        19.293036061977993        29.101833836121031        63.149240786653458     
 H        19.171206098776437        28.610328835279205        65.247214090215735     
 H        19.581318443403429        27.331593530424669        66.367828207889460     
 H        19.216020742852791        26.723450883525018        61.201785537738040     
 H        18.573185369016031        28.281937860028350        60.967022101650862     
 H        17.966628100860223        27.355643868836314        62.302647295992941     
 H        19.441437003520022        29.320035878879651        66.916707043754869     
 H        20.545531455715214        28.582063198142588        67.706838882671235     
 H        21.405101211946942        28.567369717367619        66.812936056002812     
 C        45.517380645242348        61.217547759961050       -122.85417038484702     
 C        43.989559727120465        61.211309367050582       -122.91388072401112     
 C        45.962423874653979        60.570710208202321       -124.16618357503491     
 C        43.428977192105336        61.717384855665877       -121.58441628144692     
 C        47.472319439880131        60.333242157137988       -124.12537352532975     
 C        43.907379601877750        63.163056652920261       -121.44655715886762     
 H        45.606941903832613        62.216066392163491       -123.28200134965661     
 H        46.042148702757338        61.884219220106061       -122.16986951725751     
 H        43.403173718802549        60.384995347177615       -122.51206411166021     
 H        43.508513249688846        61.657959322477474       -123.78405202062386     
 H        45.939951911348629        61.154245140904379       -125.08655415900725     
 H        45.453123325015333        59.658856717005612       -124.47801079887793     
 H        42.348971301500804        61.798988752523520       -121.70700513531246     
 H        43.723281627762098        61.143448904705160       -120.70573403475302     
 H        47.912432335598368        59.626070543119553       -124.82844450761264     
 H        47.692704909637371        59.878573784571287       -123.15955421282190     
 H        48.036838809329041        61.265494712689232       -124.14334745109095     
 H        43.498598729864661        62.854961288988221       -122.40888525988454     
 H        42.841328143888227        63.234712704429086       -121.23091934282874     
 H        43.576870414414664        62.819833081495311       -120.46621985370606     
 C        148.19974738913197        83.773699470524235        36.911399645292072     
 C        149.29935707546375        84.495370842670170        37.691072620862087     
 C        147.52287418678509        82.443696083880013        36.578571489197856     
 C        149.78855213872163        85.458450938671234        36.608942352007773     
 C        148.16154326744962        82.027729670441474        35.253084827928753     
 C        148.75091912292973        86.555900788499656        36.370693599742609     
 H        147.20593701407648        84.132072023813350        37.179746564491452     
 H        147.30153555170111        83.532568417414694        36.342918026357104     
 H        150.31068707195624        84.194688361022926        37.417390855464681     
 H        149.14309509902029        84.752680195603403        38.738676565559061     
 H        146.51206572928859        82.122145982377390        36.829513343682805     
 H        148.33520251204843        82.001427859877182        37.155304989627595     
 H        150.71355289342168        85.911997019933381        36.964989369319071     
 H        150.01844408406248        84.986683209936658        35.653596898695916     
 H        149.12937182281823        82.448816815152327        34.980883859855908     
 H        147.50942106263298        82.395923961860618        34.461081276796008     
 H        148.18637973652250        80.945062709515042        35.129329372730773     
 H        149.30187028433170        86.378852571683723        37.294385462294372     
 H        149.66489847165079        87.144200888855863        36.452208673593660     
 H        149.45444817383242        86.803084356104790        35.575679678445617     
 C       -48.595073874357730       -145.80979225143733        70.778088846939639     
 C       -47.755525485007468       -146.70309680441522        69.864301983572133     
 C       -49.737094665058819       -144.79928001700060        70.889867565194137     
 C       -46.250921415459565       -146.51504436060139        70.060882430909913     
 C       -49.820868714415901       -143.98697007509227        69.597205348092828     
 C       -45.456507923035247       -146.55594638314324        68.755097171415869     
 H       -49.122671339944077       -146.38462098085623        71.539214901386970     
 H       -49.088317899835431       -145.35605601003209        71.637701441905378     
 H       -47.219828342841723       -145.87943226321084        69.392385318136405     
 H       -48.066742051741159       -147.40981009606992        69.095016265619108     
 H       -49.642931415561797       -143.95714655989534        71.575465499848804     
 H       -50.724333540431445       -145.17974523728950        71.151985216576207     
 H       -46.191618704477747       -145.57372890847634        70.607241589907915     
 H       -45.951416364078291       -147.34197380266733        70.704764759921403     
 H       -49.889338534351324       -144.43969597791161        68.608038528469820     
 H       -49.099023880228188       -143.18911288082239        69.422666114117334     
 H       -50.740008257639943       -143.40106702354447        69.597566182123089     
 H       -44.653721286804732       -146.10329809383990        69.337113565870666     
 H       -44.797031593618811       -147.42150429799801        68.818346367489241     
 H       -45.999994649230075       -147.47127203841609        68.520787320274366     
 C       -28.132620380633313       -57.645109527283736        4.8566246286603727     
 C       -28.576818764362052       -56.496122433609472        5.7623604537973039     
 C       -27.117385362503899       -57.227214640946805        3.7924334797242674     
 C       -29.364400372396798       -55.477247488642575        4.9380729050595038     
 C       -26.927942051761512       -57.708892363312948        2.3537052900403617     
 C       -30.132379848952120       -56.345063727234034        3.9406043903654666     
 H       -27.467318087073135       -57.628980216895670        5.7198816577566998     
 H       -28.220726966574563       -58.714801620487812        5.0466141748194797     
 H       -28.010576484014717       -55.567200964160406        5.8299963154215115     
 H       -29.052467642892136       -56.745301398260814        6.7109214654506131     
 H       -26.233349502814427       -56.614835710912359        3.9701204246925812     
 H       -27.947543383778672       -56.967781733977617        3.1354462519349005     
 H       -29.711518249417438       -55.184075283773858        5.9288600418599975     
 H       -28.665524496346514       -54.774819274323413        4.4839064521828949     
 H       -26.197921660461351       -58.516375020168780        2.4097579318641422     
 H       -26.433452428395718       -56.868761771107671        1.8660982139849138     
 H       -27.785460198824737       -58.103627887317735        1.8087772739668051     
 H       -30.529034233467311       -56.609095084958348        4.9209373313668401     
 H       -31.028241632489891       -55.724333730499261        3.9556349016169143     
 H       -30.043949752793331       -55.338948959220751        3.5307103017743415     
 C       -12.679083584413805       -25.141923061065661       -20.509554040606680     
 C       -13.865762469650598       -26.019834873693345       -20.110925049460860     
 C       -11.282381815853991       -25.126551205017215       -19.887598430148156     
 C       -14.892494915546392       -25.283785559920293       -19.249593072217003     
 C       -10.833332007205826       -26.527979665627072       -19.472636147319825     
 C       -16.275188986512870       -25.264779836338619       -19.902001570473420     
 H       -12.560964192234533       -25.894115406438875       -21.289524871534834     
 H       -12.119576073039260       -25.008373340453524       -21.435413557047262     
 H       -13.720877644367242       -25.893866588016692       -19.037966346361294     
 H       -14.062498880181474       -27.071257398771181       -20.320461299573523     
 H       -11.495710160314923       -24.657586068813885       -18.927045091487329     
 H       -10.630151084420337       -24.573825308878831       -20.563756105899628     
 H       -15.067689301494537       -25.689184296207348       -18.253069740125383     
 H       -14.425231752856302       -24.310045749255472       -19.102637406390429     
 H       -9.8184583590682308       -26.409103445762270       -19.093163086138276     
 H       -10.756365341458794       -27.062365125701788       -20.419530199676455     
 H       -11.392430789126825       -27.057990945103125       -18.701535252287002     
 H       -15.920034928284881       -26.212159577189496       -19.496493057751959     
 H       -16.499004453805078       -25.114280379787189       -18.845897162518622     
 H       -16.079901511791853       -24.274190333563723       -19.491276338006532     
 C       -116.08885216057790       -64.169807171324692       -98.362757181238862     
 C       -116.43126664555012       -63.267735670157620       -99.548868612455749     
 C       -114.80587969943610       -64.972186732717205       -98.143646229781268     
 C       -117.95657731912780       -63.373848863883488       -99.551736010420512     
 C       -114.98418427755364       -66.376962469295307       -98.720407671511410     
 C       -118.63559619899746       -62.361101485726422       -100.47429607447926     
 H       -115.83443935701885       -63.220761694099650       -97.890860137499971     
 H       -116.00503746397737       -64.001425822415413       -97.289107869164866     
 H       -116.30322332740089       -63.663029418314849       -100.55656289223309     
 H       -116.23985640771741       -62.199016604403909       -99.452423493718499     
 H       -114.52711059120676       -65.272708688890731       -97.133658924507259     
 H       -113.87227508205707       -64.540333576459375       -98.504181008461771     
 H       -118.12834306245978       -64.419093468616907       -99.808757774066422     
 H       -118.24784634994937       -63.189086034385539       -98.517750951903935     
 H       -113.98622400336149       -66.812201310217375       -98.668040434311436     
 H       -115.13701644813644       -66.353916361252345       -99.799393873580982     
 H       -115.63970362068275       -67.035264204444317       -98.150290824987891     
 H       -118.18667136656924       -62.797323745258623       -101.36663938392029     
 H       -119.36736363585307       -62.940200103847616       -101.03755551063981     
 H       -119.62769015330990       -62.302707969789637       -100.02659106620662     
 C       -4.3282481524095351        23.081208166386826       -88.523212577961075     
 C       -3.0432244678432103        23.070343033880423       -87.694697661516173     
 C       -5.7491420539591136        22.811813277367222       -89.019526931352516     
 C       -2.3442648701455400        24.416266641945523       -87.500311306621469     
 C       -5.8620998282418668        21.307651978334480       -88.769366327497266     
 C       -2.6652535519350069        25.225753246556270       -88.757108281966296     
 H       -4.9294279790937718        23.861631833983793       -88.056713115897139     
 H       -5.1845106780080314        23.549414089369034       -89.008699750981535     
 H       -2.0907065905966626        23.221213855879459       -88.202681644749433     
 H       -2.8280759012424905        22.283118961388737       -86.972140135791946     
 H       -5.7957121491042258        23.019513982507021       -90.088541271249511     
 H       -6.4287585793225102        23.262546743864114       -88.296297529141881     
 H       -2.7070779863565337        24.849114468771006       -86.568050968134841     
 H       -1.2740846539969757        24.421896696599518       -87.293471605763585     
 H       -5.6072281404044242        21.189487814253720       -87.716191335124961     
 H       -5.1461598382906715        20.652305671580176       -89.265401819379818     
 H       -6.9204515192696778        21.059982889235648       -88.850924708792306     
 H       -3.4690799206203442        25.682514396806759       -88.179758852726692     
 H       -2.4374650775206059        26.285980102401382       -88.867251043242177     
 H       -1.6186670178130309        25.284463459937413       -89.055955611135644     
 C       -52.988177832089939       -125.84912267989725       -43.878548592479788     
 C       -54.120061654878043       -125.61765309723805       -42.876998894428915     
 C       -51.864535947196337       -126.62352814363794       -43.188935648174201     
 C       -54.993084810860708       -124.38343879644211       -43.105880119829024     
 C       -50.717452912240894       -126.41667476871801       -44.178507944420993     
 C       -54.116725730565861       -123.64613872757624       -44.118907449586303     
 H       -53.439931756397584       -126.77163352936572       -44.243229464158517     
 H       -53.175088706109747       -125.88907878426025       -44.951659900563804     
 H       -54.029946158025489       -124.79780689487991       -42.164375967471834     
 H       -54.542176608882016       -126.42913495245782       -42.284195291429349     
 H       -52.082767454863315       -127.48668634074336       -42.560101051121379     
 H       -51.654354341363479       -125.67977189792549       -42.685698266942673     
 H       -55.472143368846950       -125.34604260437678       -43.284756321653894     
 H       -55.197821353766464       -123.90274092885889       -42.149264987582200     
 H       -50.723169955144840       -125.52964639068476       -44.811949209474754     
 H       -50.777863840852476       -127.22843248866857       -44.903421701913501     
 H       -49.741047242304390       -126.52147415605164       -43.705486731077819     
 H       -55.035899905245117       -123.53477454441098       -44.694074208781799     
 H       -54.279826606384162       -122.58090349630726       -43.955285986639922     
 H       -53.531897636904681       -123.29373036052048       -43.269269626776222     
 C       -45.153670003081871        77.415101823389648       -90.788342926509273     
 C       -45.069066003443339        77.028719106624351       -92.265296398840150     
 C       -45.580588621613408        77.501390259970805       -89.322690954006660     
 C       -43.881009207713298        77.846841857364822       -92.772284660661143     
 C       -44.951556308518249        76.387947582231618       -88.484594951453531     
 C       -42.690305750211301        77.243226901004050       -92.026821580238007     
 H       -44.555246064912474        76.653880234696132       -90.287812712158171     
 H       -44.769181396695416        77.525342730795430       -89.774382630818636     
 H       -45.792257740618140        77.469983509966497       -92.951138536489921     
 H       -44.797686248266153        75.997841965578104       -92.492772397858062     
 H       -46.618706147549027        77.177468907481241       -89.396764955409012     
 H       -45.414164304687645        78.527302869184126       -88.994199994071664     
 H       -44.267516745649793        77.512508190366532       -93.735058171163914     
 H       -44.061895247061521        78.900583615824075       -92.560132343030645     
 H       -45.218166869471602        76.672223049331080       -87.466652834087270     
 H       -43.864730565242262        76.429618329399375       -88.412668837090450     
 H       -45.442587629802873        75.423946588234159       -88.617599952805762     
 H       -42.609635665580633        76.540382634971436       -92.856039415526027     
 H       -41.653085047188682        77.383346845653321       -92.331189143242838     
 H       -42.380676532464868        78.207447084027507       -91.623697313380305     
 C       -42.758114906410185        8.8081335776067906        63.288054158091128     
 C       -42.962731539057188        7.5876118208053507        64.185996040819063     
 C       -43.800102119641885        8.9303172784576272        62.175770551469363     
 C       -41.762026626188621        7.1467780881249521        65.023739580034317     
 C       -43.033392297594766        8.6120788368742325        60.891745106598805     
 C       -41.600213737164324        8.2015177782985731        66.118811138180789     
 H       -43.387229513921483        9.1147281946722725        64.123706329201539     
 H       -42.174931620908410        9.7032877905342279        63.504147143565561     
 H       -42.336035126652092        6.7489340103423965        63.882728583928731     
 H       -43.939143250763422        7.2087716139945801        64.487989862798329     
 H       -44.261083658209003        9.8893609580395836        61.939484187334784     
 H       -44.604175422836924        8.2258459881093824        62.388576530166887     
 H       -42.062437543236790        6.2449648593827778        65.557205721012537     
 H       -40.826857086441599        7.0345660920118132        64.475135478385852     
 H       -42.914125065353872        7.5330462849070798        60.793949449224499     
 H       -42.051181603202551        9.0797649027454259        60.959803580035043     
 H       -43.605731020290769        8.9600353466386782        60.031829585764818     
 H       -41.595802517679843        7.3547726426735256        66.805180687732189     
 H       -40.543063627937897        8.2159762424296652        66.383998973232963     
 H       -41.029991392355726        8.7826816351578962        65.394107727780650     
 C       -2.1665507129876498       -87.744469244228100       -11.777363541741908     
 C       -1.6490167743528370       -87.202505250425332       -10.444594017076382     
 C       -3.1204061414998927       -88.927188180891520       -11.606551768721824     
 C      -0.17107881214562787       -86.813280446150969       -10.489809408309659     
 C       -3.9749649263916558       -88.896310610926406       -12.874075732757502     
 C       0.31912503844336149       -87.432066294328251       -11.799254013960844     
 H       -2.9398356467552462       -86.976622036626907       -11.754102234579893     
 H       -2.1765842392083128       -87.116417976970027       -12.668178325028371     
 H      -0.86180512198567616       -87.948831977702454       -10.337850051405647     
 H       -2.1592505527124120       -87.087024539061630       -9.4883379631968570     
 H       -3.5205938431227350       -89.340174002116711       -10.680596837762158     
 H       -2.3363127108445503       -89.501041096432161       -12.100505555960527     
 H      -0.59569217261131624       -85.816021006735227       -10.374583425257111     
 H       0.32185096643177835       -87.194701308134668       -9.5955843857304028     
 H       -3.5767701565922532       -89.088398220747848       -13.870390508235136     
 H       -4.6213870889256308       -88.038375779406209       -13.058970902909833     
 H       -4.7290723582556904       -89.681529034851778       -12.820652667764371     
 H       -7.8525724216454706E-003  -86.511176321847856       -12.282107244920191     
 H        1.2290764977283011       -87.119604340412806       -12.311558492693505     
 H        1.1406605432297057       -87.955984495731457       -11.310695806589006     
 C        11.195538926933217        69.058775691429233        84.710802761740865     
 C        9.6832025917295805        69.079046329438839        84.935009927149650     
 C        11.951323744621861        68.480020009393400        83.514277722361172     
 C        9.1818578306637946        69.874876949632323        86.140475796829250     
 C        13.302098393029423        68.156738885292029        84.153604153990983     
 C        10.200048512001759        69.662295696498617        87.261162144496296     
 H        11.022276524224301        70.083716338887456        84.382813725410529     
 H        11.956309154932837        69.836305158838044        84.641689642678884     
 H        9.2698990607941631        68.517381010417438        85.772752298387459     
 H        8.9765023652567457        68.892927170717783        84.126285961910881     
 H        11.895690587075373        68.863856234790390        82.495614534937005     
 H        11.551140468981256        67.522630136536549        83.847981187845846     
 H        9.3646213574105150        70.582592190772331        85.331874205434744     
 H        8.1291030547029788        69.642238173394958        86.300746299538176     
 H        13.628251662195209        67.246984219858589        83.649550204817999     
 H        13.313492006473961        67.867177887960622        85.204377504334872     
 H        13.990020406383898        68.939369345378893        83.833677770278513     
 H        10.461944298769513        70.712838217643409        87.135182180572741     
 H        10.070918184160398        70.042168773014140        88.274632323442830     
 H        9.5655105198470682        68.943073394182051        87.779023906706058     
 C        77.375159654047451       -85.107212608252809        99.479385888504439     
 C        77.032135369752439       -86.477758035492599        100.06400589991067     
 C        78.137269332972338       -83.864126212655393        99.019205521819359     
 C        75.514367783459818       -86.460457568766287        99.879823333310526     
 C        78.682613003048672       -84.028901217666444        97.600300792413876     
 C        75.142444424445543       -86.415407592886922        98.397431848346841     
 H        77.656236677614174       -85.328876442941379        98.449841879726876     
 H        77.417530783831182       -84.352960752969821        98.693632197536303     
 H        76.581904090193774       -86.439344339528020        101.05593140201250     
 H        77.680566152909606       -87.331009174108516        99.865008514020118     
 H        79.039504307623474       -83.946196300845088        99.625288475925274     
 H        77.499979077407517       -83.000951804688029        99.211276119249519     
 H        75.310394632486108       -87.488228508363179        100.18012610899463     
 H        75.080024851931256       -85.672304177091661        100.49485215784618     
 H        79.252645289076455       -84.956987323271520        97.642953562070261     
 H        79.477768431575583       -83.314246550753424        97.387941258516065     
 H        77.929338763639805       -84.163256458536523        96.824010516592566     
 H        75.934896869471260       -87.112755734641439        98.125724952709092     
 H        74.736772452829072       -87.403262402149977        98.179090134451442     
 H        74.053994280638506       -86.426436459191621        98.454481255093981     
 C       -93.339290465035631        2.7911507413631695        100.97717079501338     
 C       -93.065899789775941        3.7808192724783201        102.11015565141093     
 C       -92.297154911812257        1.7679456478814464        100.52457190105794     
 C       -93.052890304935886        5.2628783210658074        101.73442605475378     
 C       -91.775773204793751        1.4292647609744900        99.127683380833503     
 C       -92.323754789824704        5.2820780232486806        100.39061293964239     
 H       -93.976255157479727        2.3157630610804620        101.72308134050060     
 H       -94.424655820837572        2.7345051951280470        100.89426504208672     
 H       -92.130714983033016        4.3209679595438830        101.96261305831842     
 H       -93.173741138914664        3.5423567094037995        103.16826991427921     
 H       -91.876841477087012       0.97816666457695001        101.14721609089534     
 H       -91.734509181048125        2.5795192203952344        100.06318470717986     
 H       -94.126972776742264        5.1432343258036193        101.87631361839560     
 H       -92.557558687235215        5.8235967018760402        102.52710601381622     
 H       -92.209238239583215        1.9386179402744328        98.267005010625979     
 H       -92.031101258733784       0.38605985928925590        98.941588931225397     
 H       -90.688300916695979        1.4769352874686479        99.070836674145681     
 H       -93.108996205456151        5.9728787242230359        100.69768006827802     
 H       -92.202535824912829        6.1728142334608807        101.00705021727029     
 H       -91.588974757794162        5.5428589136621760        101.15231603186075     
 C       -68.892952269372884        20.080701179806915       -132.14379687880304     
 C       -69.347230442434054        21.468505308313922       -131.69050668828638     
 C       -68.959240853997287        19.040172749378776       -131.02542867821242     
 C       -69.216481377739484        22.528425889833706       -132.78472510504733     
 C       -68.536700412129221        17.778760193190742       -131.77917859567648     
 C       -70.524578442364145        22.483957256777547       -133.57513357792052     
 H       -69.902497358524087        19.905502481219738       -132.51558194165833     
 H       -68.921460197530536        19.801414194277548       -133.19702337895100     
 H       -68.393897784535994        21.953629358457103       -131.90005740371834     
 H       -69.710090237439076        21.805759385491353       -130.71958317992551     
 H       -69.991770698762693        18.948437036910700       -130.68843209913553     
 H       -68.129588443927645        19.247391600729227       -130.34953129421106     
 H       -69.231529882096950        23.498858887620010       -132.28860689086153     
 H       -68.370259247719432        22.399771518239717       -133.45960007213515     
 H       -68.128864343462226        17.131656706111595       -131.00263063862769     
 H       -67.647385098328002        17.949834578245792       -132.38576897444264     
 H       -69.347699685749532        17.223771869256048       -132.25073791075724     
 H       -70.146601660440808        21.565999444679885       -134.02523017950304     
 H       -71.335333851069279        21.787102584789487       -133.36260303340228     
 H       -71.099112243578489        22.922557848853909       -132.75926568405293     
 C       -57.365581731582999       -72.127720836243057       -39.563600682477265     
 C       -57.024642673603147       -73.441569131928802       -40.267450201295901     
 C       -57.439605638773109       -70.928753459688053       -40.509559862705373     
 C       -56.250631372506838       -74.114274303377357       -39.133335942828701     
 C       -57.131443109143675       -69.450546954359737       -40.269180198554160     
 C       -55.050253960611720       -73.190224598612502       -38.925809671609365     
 H       -58.304335783431767       -72.604891815744978       -39.844934436607382     
 H       -57.820182888785666       -71.997067901594605       -38.581578497933030     
 H       -56.004091849660099       -73.600081988409556       -40.615946562921678     
 H       -57.733310798850866       -73.870515218220064       -40.975895505676085     
 H       -57.906158885048271       -70.930488817137601       -41.494661412041197     
 H       -56.386811267378853       -70.732770143936847       -40.306300072064353     
 H       -57.217205663253729       -74.026420952458238       -38.637235307288975     
 H       -55.994248868228588       -75.129866253073857       -39.434900296558638     
 H       -56.316664268835297       -68.920153060977100       -40.762046986581680     
 H       -57.042381129920471       -69.085325893204939       -39.246056745328310     
 H       -57.975228663840312       -68.846623720776122       -40.602950650780151     
 H       -55.868909937080126       -73.124933023732723       -38.209123318643549     
 H       -54.815403012913251       -74.045304209069343       -38.291945443699582     
 H       -54.700618786050079       -74.094278388303195       -39.424349502749685     
 C       -113.01302293230077       -106.11449641516171       -4.2219646378751499     
 C       -112.41895794330215       -105.94812985538285       -5.6209821142479548     
 C       -112.32419551390986       -105.85609812581112       -2.8815959901764665     
 C       -113.09786698151156       -106.72637076424398       -6.7484857790138850     
 C       -112.77881162495572       -106.90788462129316       -1.8692173645326684     
 C       -114.43620121489710       -106.02361029881392       -6.9783338779736992     
 H       -113.44227264140875       -105.13602578462236       -4.4374638521663172     
 H       -113.86992679342033       -105.67505194978801       -3.7113724616944630     
 H       -111.86971283271782       -106.78116138379043       -6.0597170011903803     
 H       -111.82761593758858       -105.07530247899564       -5.8977256897813222     
 H       -112.59804000742793       -104.97680530368970       -2.2985408367867088     
 H       -111.23649342777267       -105.78544797746378       -2.8780247188229442     
 H       -112.42457237575265       -106.72743601344571       -7.6056748956272804     
 H       -113.23511823409244       -107.80116077194099       -6.6297903883897220     
 H       -112.35016641138755       -107.84354567640121       -2.2282459986042169     
 H       -113.83898735260257       -107.14979210452030       -1.7943293560110409     
 H       -112.32412364460362       -106.69952244134969      -0.90074224215299581     
 H       -113.72968213498652       -105.29480564498567       -7.3755422655543050     
 H       -114.64806622531982       -106.37637961232984       -7.9876737673885536     
 H       -114.83165568767761       -107.03908915238910       -6.9555646149453754     
 C        125.44019369619767        103.35744830445118        145.13868089459444     
 C        124.44684678780780        104.34674398607956        145.74892420233803     
 C        126.90404664853440        102.95640556091436        144.95391008577585     
 C        123.32384666052782        104.61907964980594        144.74765255617325     
 C        127.59318223057748        103.93016859209000        145.91031942849426     
 C        123.88979587894663        104.98635138705950        143.37555419886988     
 H        125.28064652308935        102.34194048051668        145.50115651547765     
 H        125.90698699890891        102.48038942677267        144.69038209904127     
 H        124.49803872729626        105.41488708112526        145.53785610024181     
 H        124.08760477072084        104.15496425234636        146.75999577005862     
 H        127.20104815426392        103.16553430790077        143.92621593947695     
 H        127.02679610076338        101.97921175152592        145.42094847445301     
 H        122.96954664751466        103.59497183125771        144.63028727795739     
 H        122.62202041108142        105.33744741184233        145.17131247568796     
 H        128.65552539539007        103.69293179856327        145.85334932994272     
 H        127.24961246544727        103.60868521190065        146.89353267725477     
 H        127.50491732268469        105.00177919599271        145.73154575487300     
 H        123.23933192978014        104.27841651665733        142.86191539839800     
 H        123.07646338994121        105.50161348604847        142.86457942666055     
 H        123.97654145581316        106.06894788650033        143.46807456167429     
 C       -83.963773163747902       -99.252981533091130        33.453538329711009     
 C       -82.868280021315584       -98.514912216110105        32.683480255951615     
 C       -85.381619960039046       -99.825094557711836        33.438108721987312     
 C       -83.404186817147846       -98.490914194405050        31.251674061977575     
 C       -86.441209618090767       -98.771459178548369        33.762089270419231     
 C       -82.350678806486044       -97.781484778190190        30.400397505927522     
 H       -83.642356728880770       -100.24468104808949        33.771851957091755     
 H       -84.514950852992925       -99.860342475968139        34.171463034593010     
 H       -81.958172210311290       -99.062553861600406        32.438751028790506     
 H       -82.714306349818486       -97.463628067489253        32.926777836615152     
 H       -85.653295929753739       -100.84472215789528        33.711333430866922     
 H       -85.450408153858788       -99.369908395973795        32.450093659678537     
 H       -83.291612914995355       -99.535086728637978        31.543445765030693     
 H       -84.432937005081754       -98.131067274301486        31.268503985214302     
 H       -86.884528413603903       -99.102010542195075        34.701399722532024     
 H       -87.311814374621164       -98.676561272686584        33.113134916899945     
 H       -85.954626586543739       -97.815923298250738        33.957762845806954     
 H       -82.098540653011668       -98.780636356570184        30.045119557616463     
 H       -82.763777658138125       -97.702742865626149        29.394788721789475     
 H       -83.048762001549775       -96.946852850800241        30.335826732301303     
 C       -121.00748336687910        109.05389043295143       -19.461447041892331     
 C       -121.92275831937545        107.85293638935180       -19.220984771660412     
 C       -119.49067356664057        108.90608124265570       -19.585065008491096     
 C       -122.42552949529569        107.80949918842079       -17.777663825287409     
 C       -118.87682182266627        109.94172821081783       -20.527647919048775     
 C       -123.05504774922953        106.42086129955842       -17.662631230403637     
 H       -121.43294312918447        109.01045611833503       -20.464042403752345     
 H       -121.64845148415837        109.83098526719182       -19.877840517832691     
 H       -121.25323978332197        107.00410005142912       -19.359987564315080     
 H       -122.84662959942712        107.93007583615194       -19.794231077240749     
 H       -118.94095235276646        107.96723626516226       -19.518156785507589     
 H       -119.44964025394012        109.74186727400958       -18.886582368653158     
 H       -121.38310666319241        108.05652253193161       -17.576581679310447     
 H       -123.11856538499961        108.63596516938995       -17.620325751527055     
 H       -118.72677352274114        109.49809152383087       -21.511910014885011     
 H       -117.91361562613670        110.24399195948439       -20.116587733250359     
 H       -119.56508255265271        110.77883100409070       -20.644507213668586     
 H       -122.28116912261252        106.23305343267928       -16.918359763170493     
 H       -123.68282567844898        106.43596547889497       -16.771695357748513     
 H       -124.01087044849331        106.90029340385699       -17.873931509704335     
 C       -6.3267878842661833        32.917816238471652        71.713592823377439     
 C       -7.2120637527753448        31.718073086687237        71.374854074574955     
 C       -5.3818724908142697        33.544226707075573        70.687636754682231     
 C       -7.4120280025922600        31.114621965151830        72.765430191771088     
 C       -4.7112012245092663        34.697793624624744        71.434178394035953     
 C       -8.5725722174220973        30.119312650770272        72.747060469773359     
 H       -7.2721361903626036        33.459067825282261        71.675339918927079     
 H       -6.7886228430294731        33.385429183297646        72.583159713600210     
 H       -6.7441256319682426        30.830594306160766        70.948807889343698     
 H       -8.2248712813556626        31.911604214428898        71.021489367067531     
 H       -5.7672651785859479        34.037732434371883        69.795434660165739     
 H       -4.6838539098881080        32.774460910850387        70.358500399885386     
 H       -6.4947381303369980        30.589602841830480        73.031952527798140     
 H       -7.5952870095794447        31.844924743840483        73.553576149347904     
 H       -4.5712550686501956        34.711535856757017        72.515069755833565     
 H       -5.0426490542843574        35.718602460808299        71.243937188452222     
 H       -3.6735829616660118        34.782442034022246        71.111249552715506     
 H       -7.9338914211979468        29.805554274088799        73.572737439391020     
 H       -9.0995290364404369        30.583400146443253        73.580750632089234     
 H       -8.9705059472942157        31.120993532107736        72.584628533108244     
 C        85.152950950057203        133.40802358419666        42.638519932291047     
 C        86.379511421901853        133.54524090294419        43.541050716444126     
 C        84.665236370069877        131.96408951271741        42.515923882899010     
 C        86.860107836080033        134.94355669209472        43.151716768174552     
 C        83.259409625741412        131.86983477157065        41.922115524108150     
 C        88.182992990472513        135.08681418449720        43.904905391749082     
 H        84.531040029194074        133.66052779124476        43.497337983032757     
 H        84.495417809509689        134.25856761851273        42.458728269206439     
 H        87.299689839140228        133.03977658916421        43.248002071856881     
 H        86.219630614244281        133.60976703922529        44.617328787697225     
 H        84.932256543494660        131.14895157297215        43.188493872308179     
 H        84.937114428899733        132.06372803797595        41.465088736418039     
 H        86.737178149311859        134.53195241155720        42.149933299230113     
 H        86.097422944720392        135.66983008302023        43.432677222248067     
 H        82.619599438555369        132.01463414021813        42.792618800225270     
 H        82.954112566773276        130.86515325618612        41.629696695365247     
 H        83.010145697870257        132.71355946253928        41.278612497650492     
 H        88.143930252070987        135.44882020571646        42.877517602278452     
 H        87.703693187173741        136.05295192514114        44.062859601340293     
 H        87.372269683656853        135.12369235129469        44.632550699789839     
 C        68.569862107147728        39.380358613943464        97.355074197302557     
 C        69.410957480276309        38.775559501870198        96.230522030758053     
 C        67.662405200046095        40.512928872386645        96.873776483285823     
 C        70.905031710351139        38.840350232679413        96.548932655920623     
 C        66.775932958452685        40.812805579277338        98.082942339323708     
 C        71.740677847121148        38.798252204439933        95.269181004185128     
 H        67.842645757702286        38.583785834517457        97.197822170674470     
 H        68.354262750210410        38.809729894398963        98.258401281335054     
 H        69.224631086317586        39.451356459602181        95.395847885764468     
 H        69.234283258256738        37.704948507367817        96.127186240035641     
 H        67.300093825800730        40.701106502125000        95.863123392777808     
 H        68.453472832138502        41.167007202230380        97.240510119772054     
 H        70.950003635120737        39.881387077534725        96.868807195885609     
 H        71.153450742900361        38.084958538349134        97.294433412721645     
 H        66.498351339890021        41.855123583378564        97.926029903646409     
 H        67.309660564579232        40.901012968619227        99.029226819167377     
 H        65.821568045928103        40.287036111875423        98.053717513897595     
 H        72.341590406733275        39.352245887309245        95.990357155076239     
 H        72.397590822504924        38.002045953481485        95.619353712249634     
 H        71.290577874860546        37.817572846039795        95.423382162529109     
 C       -62.200095655267916       -95.159874304773851        103.94426053094793     
 C       -63.603694228579371       -95.615115486856538        103.54362666616404     
 C       -60.776489866149525       -94.603688989904242        103.90130270169008     
 C       -63.700911421425175       -96.859828698358214        104.42628109374506     
 C       -59.902679323450478       -95.800573134312586        104.27781913048854     
 C       -62.543340730253007       -97.731877482019655        103.93904200442698     
 H       -62.320660209500055       -94.094544950770526        104.14082495057711     
 H       -61.478736425329956       -94.568732142841341        104.50843412516576     
 H       -63.707023495879511       -96.477141509827817        102.88458628536355     
 H       -64.362605769719238       -94.869405921222892        103.30683468000409     
 H       -60.444452562479242       -93.588044816109814        104.11651924591628     
 H       -60.800422578501646       -94.899564619670912        102.85250107243957     
 H       -63.646628369749145       -96.108734954252554        105.21432389742154     
 H       -64.687927891847025       -97.305053228339432        104.30108669854056     
 H       -58.881183298132690       -95.421996491553941        104.24141196549492     
 H       -59.858421469173287       -96.658091608202156        103.60640024444017     
 H       -60.101320161380400       -96.083802242019786        105.31146467215287     
 H       -61.953241886810858       -97.536750933396164        104.83447984889561     
 H       -62.542966042022705       -98.595841919977033        104.60362104541106     
 H       -63.083574151733842       -98.574035988741784        103.50658750095464     
 C        44.260266914098644        78.272070148434167       -31.556010241419614     
 C        43.101115868074011        78.696807537184739       -30.653897192502594     
 C        45.698223750136108        78.721558256891456       -31.295085773328509     
 C        41.731388487531305        78.097280093806731       -30.973670006833370     
 C        46.464186458612168        78.236371893603973       -32.526238259523943     
 C        40.592176002623773        78.938592686541142       -30.397276922899298     
 H        44.114602705029959        77.308692931569951       -31.067352623262870     
 H        43.913575491481097        77.379203538742388       -32.076293107103190     
 H        42.346634078150188        79.263533435597097       -31.199496860975419     
 H        43.227032264989354        79.136326960865247       -29.664418673904869     
 H        46.205450194324719        78.830181059951144       -30.336429209938892     
 H        45.394933906636084        79.640910702336825       -31.795991330805265     
 H        41.483971392949663        77.991949457041144       -32.029979710869618     
 H        41.817466326798140        77.084402341019128       -30.580262699052714     
 H        45.929789989513679        78.132220972157327       -33.470522575219995     
 H        46.780578673519969        77.214563968577821       -32.316704095710264     
 H        47.384206449945005        78.798288488400104       -32.687213326734664     
 H        40.497023070847369        77.959831436021005       -30.867460141700938     
 H        40.621749243432305        78.110520723612382       -29.689094589213017     
 H        41.213370471486748        78.849065884925736       -29.506096602013237     
 C       -65.311320731241821       -115.83761825217140       -138.85866981410712     
 C       -66.253430049473891       -116.89199625922730       -139.44052719708691     
 C       -63.970029523364289       -116.42141160541404       -138.41373811555087     
 C       -67.573277108601133       -116.13501584521893       -139.59160758778756     
 C       -63.985543086938833       -116.80948535301745       -136.93488747470590     
 C       -68.412363678537346       -116.97086237079465       -140.55863150633994     
 H       -64.996062441960277       -115.60279772075091       -139.87531701677131     
 H       -65.428497387761681       -114.78427693926444       -139.11331015124259     
 H       -66.651333462287283       -117.64985713850429       -138.76567923338098     
 H       -66.035759224971258       -117.24922712936269       -140.44705862283649     
 H       -63.351524366423355       -115.52388955675139       -138.41138682640889     
 H       -63.698016282327778       -117.19685047570438       -139.12984102768809     
 H       -68.002560355176257       -116.01107011284644       -138.59739770252406     
 H       -67.541712165995506       -115.09071135205370       -139.90230333700677     
 H       -62.943295787617103       -117.03675414318160       -136.71090230891596     
 H       -64.442364970819867       -117.78674937203395       -136.77878228104700     
 H       -64.284547530449842       -116.01755706965554       -136.24819544134590     
 H       -68.782562292440375       -116.19548937056179       -139.88792320965615     
 H       -68.473982245051218       -115.98655814349010       -141.02279560403372     
 H       -67.714868635097659       -116.52701302659428       -141.26898240834160     
 C       -95.083140906879379        5.0253218158513260       -82.167541499159455     
 C       -95.274818912165529        5.4155476809776903       -83.633428369445127     
 C       -94.178293809143284        5.6993759274402409       -81.135677317202379     
 C       -95.757689096610889        4.2315306334369769       -84.471748653638713     
 C       -92.753313612408789        5.1474988664124863       -81.187680254141299     
 C       -95.595225363027950        4.5148516263977392       -85.965460710413780     
 H       -96.010617882113365        5.5836416185796773       -82.040397995047741     
 H       -95.759632378741273        4.9397563178681256       -81.317166369351014     
 H       -94.305861632420857        5.7263020840273402       -84.024137329114410     
 H       -96.069341586880938        6.1149182803701221       -83.893648402589079     
 H       -94.564855291179725        5.6493379838886320       -80.117754708510603     
 H       -94.316008649615071        6.7800652296603188       -81.170966172546699     
 H       -94.950972024037924        3.5369502019197347       -84.237514746208049     
 H       -96.761107074352154        3.9451098077375755       -84.156763682282943     
 H       -92.321195323137516        5.6000662887921946       -82.080180335973282     
 H       -92.625195405319957        4.0809264993206487       -81.372366795396417     
 H       -92.221902381786336        5.5853282272455340       -80.342690566490788     
 H       -94.565211112220112        4.5723242496613423       -85.613512588974771     
 H       -95.423458191383673        3.4981174310209449       -86.318798503796216     
 H       -96.536579114867081        3.9709988572133565       -86.044056271518372     
 C       -106.87258072204106        71.609489997243330        94.145611292182480     
 C       -106.05173212064196        71.727282685262907        95.430202051771403     
 C       -108.34822964068255        71.953185972945093        94.350975225721555     
 C       -104.75381810735253        70.920162157420464        95.387580874368851     
 C       -108.92101675290142        71.598858758728809        92.978310564741676     
 C       -104.82246449366252        70.208567758546039        94.036003268261240     
 H       -106.55961579750888        72.621660309675875        93.889360984348500     
 H       -106.39258366472069        71.677558906754314        93.169358537959511     
 H       -106.04185291521185        70.656755717936790        95.635078638896474     
 H       -106.26818281016884        72.262575126094902        96.354707919884035     
 H       -108.44013289429856        73.024205607618455        94.531448824005878     
 H       -108.75904055881068        71.199769690907743        95.023060280707526     
 H       -104.32380334909540        71.905117713539298        95.569376836776854     
 H       -104.72403221777944        70.253946353165801        96.249769576604152     
 H       -110.00019584280706        71.682692126382250        93.106546083692734     
 H       -108.79949354061856        70.575613636804889        92.622921272934576     
 H       -108.63552030305256        72.408411036486328        92.306583751810933     
 H       -104.09993109007546        71.017245866838522        94.145935627698748     
 H       -104.02258771039546        69.678573615702319        94.553113805063248     
 H       -105.11817430937212        69.498961838099873        94.808735508779037     
 C        6.4251945332605072       -137.04512974343965        95.607752745260470     
 C        5.5377093180442749       -136.47173510100237        94.502569711066613     
 C        7.8892555151275854       -137.20276290882882        95.196026833343595     
 C        4.6195274073331154       -137.54004448174442        93.908012781484814     
 C        8.6023860155838374       -137.55557628039966        96.501710078361754     
 C        3.5208972116085682       -137.90684774864272        94.906165078692837     
 H        6.3922903101792530       -135.97283939389794        95.800653545559584     
 H        6.2176747414118410       -137.08006293453985        96.677245711894642     
 H        6.2566953256295150       -136.19264068823705        93.732332451624401     
 H        4.8313519939331693       -135.73925342276468        94.893248496295527     
 H        8.4225369513743047       -136.68720762736237        94.397331868375460     
 H        7.6211219477128767       -138.24347399284903        95.014024483768793     
 H        4.1628421712624180       -137.12045850317699        93.011638893765138     
 H        5.1279331698834820       -138.45434796708255        93.601952690223243     
 H        9.6422019528643439       -137.70287723877922        96.209845153815721     
 H        8.3506714892330347       -138.50131208084051        96.981630501332390     
 H        8.5881613005758162       -136.65412603245917        97.114315279514798     
 H        3.7217263401993685       -138.41911752525183        93.965236142643860     
 H        4.2754792689754684       -138.67360759397971        94.730707903865152     
 H        4.4731677558723755       -138.11300075795373        95.394818047188124     
 C        71.284457583762460       -145.37526175159763        16.796128243335168     
 C        72.629130144371757       -146.02554285423679        16.469277896531874     
 C        71.050288939768862       -144.05384498717956        16.063418407349719     
 C        73.618582676453542       -145.88259524014336        17.626166251725213     
 C        69.862911244116404       -143.43127657064051        16.798526505048557     
 C        74.973897034104766       -146.30110965984719        17.055368924515157     
 H        71.129287313474336       -146.04898653787515        15.953443781265355     
 H        70.404571945071794       -145.84852567511180        17.231929307617676     
 H        73.048442448264183       -145.50678978415280        15.607203410916389     
 H        72.679451552877779       -147.10933454958766        16.364572179540733     
 H        71.230267961311469       -143.82634244567728        15.012728079564067     
 H        71.761079450837627       -143.64569095722086        16.781949657723466     
 H        73.566887596942294       -144.85442726209834        17.984353563389575     
 H        73.407920008708302       -146.40583949486111        18.558870235792476     
 H        69.876765511418483       -143.18657775732123        17.860614263362507     
 H        68.875715126816573       -143.88066859713516        16.690866652926950     
 H        69.657712638995960       -142.44467301756220        16.383066546190321     
 H        74.510299834338682       -145.32149057719081        16.939076190251189     
 H        74.996050680431040       -145.48121925987635        17.773274836788424     
 H        75.078231452807501       -146.28926774794303        18.140299367984731     
 C       -40.961082821599163        30.340858889954323       -129.29240897964684     
 C       -41.588217267388309        31.705478841765846       -129.57938593694942     
 C       -40.368793393982983        30.470340755319970       -127.88874641830495     
 C       -41.725997575362165        31.712659879833218       -131.10214852586822     
 C       -38.859592014051977        30.225083661918092       -127.88760187701661     
 C       -40.349135015444396        31.163323758775295       -131.47674197534923     
 H       -41.882651915939114        29.914569317722421       -128.89606617687454     
 H       -41.257764482464225        29.463220331480422       -129.86671776430009     
 H       -40.943879863958287        32.583508032571537       -129.53473114118273     
 H       -42.604303172831969        31.868947897590157       -129.22029363387466     
 H       -40.751705127039280        29.561346774501327       -127.42484066768269     
 H       -40.720879769139330        31.413879836853987       -127.47177012184039     
 H       -42.488499693367615        31.156212951090751       -130.55711896561945     
 H       -41.993757470921295        32.714998086625663       -131.43639815838293     
 H       -38.363928036133359        31.017665953839071       -128.44816445681894     
 H       -38.654864912936532        29.275062987100146       -128.38120855780389     
 H       -38.525852175827616        30.294863893940512       -126.85230073435505     
 H       -40.752388997531071        30.575304293432321       -132.30119287261718     
 H       -40.114625901028191        31.622966298404883       -132.43686394661395     
 H       -39.729882014138745        32.052452603259333       -131.35810128502951     
 C        122.85806644447047       -59.408485255782580       -35.668855132212315     
 C        122.55424493484773       -60.108326181196119       -36.993904629177194     
 C        123.09303767850446       -57.915489737367807       -35.437351769802042     
 C        123.91432670120430       -60.005028658211295       -37.684808452696302     
 C        124.41706395761045       -57.656937969552679       -34.717666732705425     
 C        123.86866507434992       -60.350142083505148       -39.173651192039351     
 H        121.77797379088857       -59.480470866347389       -35.541113424475014     
 H        122.32861496109220       -59.333336461344835       -34.719047881878431     
 H        122.01188499115864       -59.555846305777145       -37.761180120046944     
 H        122.34780182970059       -61.178396851371694       -36.973168507358032     
 H        122.27573600485609       -57.421714617212750       -34.911705389197749     
 H        122.88473224173953       -57.360790168029148       -36.352238255285499     
 H        124.22727525409863       -58.986028080740702       -37.457210193365697     
 H        124.54687449865112       -60.718486510286446       -37.156640647947789     
 H        124.45760018223480       -56.579335216953424       -34.558830327622495     
 H        125.21503207505970       -57.763938206877093       -35.452444154347496     
 H        124.58023750934977       -58.324282908802346       -33.871424965006348     
 H        124.63409205424412       -59.757974922464079       -38.672094094798254     
 H        124.72838746857232       -60.935688522090324       -38.847901679687858     
 H        123.86668154394333       -61.358201684536425       -38.759028606587577     
 C        31.723975140013664       -135.11188943334261       -43.068282047265377     
 C        30.987254539096792       -133.99941815848953       -43.814935510855847     
 C        30.888334912449039       -135.35923010958575       -41.811950482768445     
 C        31.544827683963984       -133.80417307097133       -45.225195215865270     
 C        31.834409071185565       -136.25047455391771       -41.006675282119801     
 C        30.700838366534402       -132.70123306619263       -45.864762510371364     
 H        31.213155640199300       -135.91367546578613       -43.601482391722513     
 H        32.441316331379809       -135.74691744558424       -43.588148397363057     
 H        31.238811783776800       -133.10981308119247       -43.237508664322561     
 H        29.946292903675648       -134.26220921692922       -44.003189916149758     
 H        29.991862651830591       -135.91483075509234       -42.087169294285943     
 H        30.859327615293328       -134.41975135384149       -41.260010024163840     
 H        32.534284704316626       -133.36026425207905       -45.115560776181688     
 H        31.535843375506765       -134.69227156494753       -45.857097432828510     
 H        31.729154388997237       -137.24823327296568       -41.432702134086952     
 H        31.375670021610677       -136.41804656870144       -40.032212282144179     
 H        32.831222740856113       -135.82380739757241       -40.895240724137025     
 H        31.693792240456208       -132.59777321788243       -46.302299479574096     
 H        30.551364371897446       -133.23729420827135       -46.801990314447536     
 H        30.106777563255843       -133.61417133234886       -45.823103679105991     
 C       -98.826615250043986        58.278216722694886       -125.51344290578764     
 C       -98.331067860241745        59.537989312786252       -126.22425003784284     
 C       -100.35450678276855        58.304837744541125       -125.46167708929410     
 C       -96.810299954033383        59.426627576623346       -126.11153562365634     
 C       -100.71444076823282        57.454900988986225       -124.24270367635150     
 C       -96.108470386979775        60.697430669298448       -126.59146861352313     
 H       -98.838757805347967        57.706034745234945       -126.44110682992051     
 H       -98.240849944469616        57.359013586833242       -125.50676165379943     
 H       -98.400098266245635        60.486163612706228       -125.69105186396692     
 H       -98.513357278514732        59.605639874272242       -127.29676760448633     
 H       -100.95227041872737        57.846239058030164       -126.24937366624509     
 H       -100.67059755666584        59.344483734104898       -125.37610324082145     
 H       -96.410383877118221        59.256220275866724       -125.11197151574039     
 H       -96.595132561562252        58.523077757541536       -126.68197470824472     
 H       -100.18387114931336        57.832896154459995       -123.36879555084015     
 H       -100.39594457732970        56.427776037078395       -124.42067709133943     
 H       -101.78138779787970        57.588704074424292       -124.06431985026239     
 H       -96.079757451628723        60.999909181851251       -125.54467242569230     
 H       -95.045153668688400        60.890556856564025       -126.44948325433668     
 H       -95.592458545296921        60.176467695821927       -127.39796061527274     
 C        9.8344700628747521        41.448792236752290       -75.603818577547386     
 C        10.811221169407185        42.274622643923394       -76.441555033186646     
 C        8.4146131858193645        41.961935660758378       -75.845751047900819     
 C        12.296525942402784        41.952623837252084       -76.274141166150500     
 C        8.1932969378447709        43.333654344329084       -75.207591215628767     
 C        12.687221633822011        40.579361593437959       -76.821268794156964     
 H        9.7281752625773859        40.698272699460595       -76.387094933153477     
 H        10.061182674205941        40.424581032344086       -75.307688921603258     
 H        11.434039901711582        43.016115996707896       -75.941170730701856     
 H        10.505456322706380        42.773311407801316       -77.361292699064791     
 H        7.8486597687552626        41.304981245541747       -75.185290882471008     
 H        8.2117546793414995        41.869871643668127       -76.912743413650347     
 H        12.785875945064493        42.797885619179482       -76.758051315829178     
 H        12.466515058883484        41.986596381859556       -75.198014028889574     
 H        8.9284678367653960        44.040113061729187       -75.592999754042310     
 H        8.3216819862481124        43.229906914182394       -74.130161955640247     
 H        7.2050767444603991        43.704851830467163       -75.479130024693077     
 H        12.239828235574542        40.163629451893577       -75.918436651742354     
 H        11.972759873432688        39.869940657884065       -77.238840732532921     
 H        12.524670407608570        40.881799891341402       -77.855777451807995     
 C        68.425608009378351        27.116087522059257       -54.564899543474674     
 C        69.872397634220391        26.977937421780140       -55.039826161818070     
 C        67.829598401819823        28.464940203111112       -54.160907070095597     
 C        70.504877931438457        25.592005016198559       -54.909438242197830     
 C        67.529764530429958        29.047084662298698       -52.779223803740251     
 C        70.724465869631828        24.935010873634052       -56.272515948726664     
 H        68.202429347260576        26.951397233224011       -55.619019272247691     
 H        67.909258258600389        26.232582920249229       -54.940269478524428     
 H        70.549241402621192        26.737563619030482       -54.219946304632757     
 H        70.364710022327728        27.682407457751005       -55.710236808240040     
 H        67.354812951063977        29.173380300262512       -54.839723260657486     
 H        68.723755646016627        28.656222426463874       -53.567616282881879     
 H        71.481165826991202        25.549157702413471       -54.426607049771121     
 H        69.813937578452268        25.077184972081483       -54.241859215817549     
 H        67.759111138966603        30.075238022685785       -52.499222651262876     
 H        67.850739791113838        28.502233899487354       -51.891410462300399     
 H        66.452653332294659        29.044714990161872       -52.612113479667421     
 H        71.224935171380224        25.828430590985928       -55.899110495864541     
 H        71.676412990816530        24.728625049719245       -55.783331375256410     
 H        70.970597541928527        24.090838051140913       -55.628395283080749     
 C       -144.75477588653976       -22.128986472999397       -92.359461152135310     
 C       -146.08991130537146       -22.818958027348501       -92.640874846844994     
 C       -144.87082996497793       -20.612077082470890       -92.206627067449929     
 C       -146.01496317662412       -24.321328635571767       -92.366819713107461     
 C       -143.45041436905771       -20.175114603083692       -92.566244178441096     
 C       -147.02442330037630       -25.085972276930519       -93.223646019088449     
 H       -145.18743004741401       -22.414596033228531       -91.400640225929834     
 H       -143.83602281376807       -22.583045806676331       -91.988216030797460     
 H       -146.31696074853315       -22.684893397594919       -93.698502014404440     
 H       -146.94456767258058       -22.594567730695651       -92.002665265016347     
 H       -145.42592011420015       -20.104694260200993       -91.417616533937334     
 H       -145.14652109090619       -20.624256719685054       -93.261115606595908     
 H       -145.05294922609772       -24.517139789969548       -92.840409287764260     
 H       -146.08134424628778       -24.501384432326045       -91.293845564642467     
 H       -142.77726075604349       -20.399948845280122       -91.738951210536484     
 H       -143.46176467164526       -19.099286644491983       -92.741073819457768     
 H       -143.10641821802099       -20.738148917844740       -93.433861043426546     
 H       -146.37327553563227       -25.367449401489299       -92.396072975860960     
 H       -147.30903680467060       -24.931017680012211       -92.182932710847098     
 H       -147.25583230461407       -24.181708992103985       -92.660744825295382     
 C        61.722965751362764        1.3762112342155761        51.488599063941564     
 C        61.208558977449805        1.6044548312932458        50.066934034467131     
 C        61.013801081805077        1.7140742638779851        52.800382229716412     
 C        62.549873184891801        1.8497332660671413        49.375156916898540     
 C        62.151369032965007        2.1119050909926900        53.741398058218266     
 C        63.327495188649962        2.4450460277263288        50.549357780660259     
 H        61.369811517357590       0.36126031389449942        51.306234837367889     
 H        62.033873410456060       0.49076205687768315        52.043050342417892     
 H        61.192836236266835        2.6202430660487117        49.671931397116985     
 H        60.336064710933798        1.0528186037010294        49.716860848802426     
 H        60.093221242998638        1.2858352337478705        53.196922420794529     
 H        60.948162765371158        2.7211018592459002        52.388451334500047     
 H        62.172793877457984       0.82781095159843299        49.335333950898665     
 H        62.393005510319178        2.4663672382301813        48.490139892380327     
 H        62.786581924447191        1.2297155593463174        53.821060623082985     
 H        61.655648955819331        2.2327166963105021        54.704604277742511     
 H        62.804127331067626        2.9398637904699356        53.464827912732417     
 H        63.722793571808666        1.7417644936680321        49.816395169061288     
 H        63.711142387514528        2.6853490952900803        49.557808881871203     
 H        63.109456947413207        3.2660352874603529        49.866323423356683     
 C       -74.555545287760836       -61.179515484113686        56.202750821880066     
 C       -73.314985526120367       -60.506832246142444        56.791265680784285     
 C       -75.698058475548052       -60.374340520445173        55.582913908449584     
 C       -73.502483319368736       -60.071863850269274        58.245049693250465     
 C       -76.491490877602743       -60.600728098256518        54.295647474652228     
 C       -73.428362673139887       -61.359130809428777        59.066810517999940     
 H       -73.866011494137354       -61.454977935066509        55.404776136873160     
 H       -74.258415365188227       -62.206734949073173        55.991483201871588     
 H       -73.822728378761227       -59.576143510615381        57.044476409834175     
 H       -72.356991713708098       -60.272425928154014        56.327151993151809     
 H       -76.014533469597609       -59.380952004968044        55.900912115899409     
 H       -76.313268740200442       -61.273849740634880        55.605263791353572     
 H       -72.733895993615519       -59.333740766737556        58.474282728370731     
 H       -74.388071844841534       -59.491847088942940        58.504690968095701     
 H       -76.212352878418869       -59.770533986153850        53.646833486134270     
 H       -77.578399961729843       -60.522681127737371        54.320892467086665     
 H       -76.145158626238313       -61.514078837359186        53.811969477792232     
 H       -72.463455997860009       -60.999448132983218        59.424138691585469     
 H       -73.568832837513156       -61.395021094211508        60.147125295234382     
 H       -74.505101822097330       -61.381593579222780        59.234823068993535     
 C       -61.350783812372548        83.636034244302138        7.5359753912139027     
 C       -61.027673970146552        82.575843747604893        8.5892736113631312     
 C       -61.161452865847274        85.069444930023749        8.0332967203204007     
 C       -62.202871904175595        82.797123043518965        9.5420517449479672     
 C       -60.996642015065916        85.901045897031722        6.7608509017770482     
 C       -62.200514660393246        81.587649183461068        10.477470567012439     
 H       -60.299407647951945        83.370499582034952        7.4255239703607572     
 H       -61.413820685364577        83.503792868426544        6.4558649345967929     
 H       -60.624979173888576        82.978814653784212        9.5185482478353443     
 H       -60.641417290059053        81.604187700196078        8.2813933031221207     
 H       -60.282050742991771        85.352848270787376        8.6115998182247893     
 H       -62.038884430293187        85.341039268958383        8.6201956990125019     
 H       -62.058011672979674        83.759615742871432        10.032687317702685     
 H       -63.193162505549438        82.962042268186721        9.1175211269267642     
 H       -60.944110589850851        86.986493166705003        6.8453762555067366     
 H       -61.899195034469180        85.750848659286518        6.1684499673154409     
 H       -60.177070079210353        85.543075001163473        6.1377468258254106     
 H       -62.467761509796127        82.193432232502502        11.343326193704385     
 H       -63.245585713665967        81.441062654738360        10.750305443162910     
 H       -62.680121647949008        80.836742373090885        9.8496042651035864     
 C       -116.45732172855011        137.94403139825593        16.232658881611233     
 C       -117.32801663071632        136.69564488368349        16.086842274137265     
 C       -115.23132286050168        137.73381066858090        17.121801688936056     
 C       -118.70759284034777        137.32203362323727        16.292384481513974     
 C       -115.43877070698822        138.32120677228480        18.518144183890360     
 C       -118.63852565613048        138.47142556490044        17.298351125346709     
 H       -116.11488409780047        137.46734757097303        15.314176977861514     
 H       -116.44277500769539        138.82428268615027        15.589972257543440     
 H       -117.72366734557124        136.31552431938835        17.028685619571096     
 H       -117.08261540067451        135.94710251166080        15.333474834459848     
 H       -114.53460933977792        138.44213967334687        16.673515744229544     
 H       -114.95988734808094        136.67998788335311        17.059509278038725     
 H       -118.33946012659935        137.43754882666079        15.272955997334337     
 H       -119.57249389519401        136.66081089862755        16.345588597206842     
 H       -116.21417714277396        137.76052720188915        19.040143372635509     
 H       -115.75613291056666        139.35783296857682        18.405062855384109     
 H       -114.51778588410941        138.22410696457106        19.092999466360951     
 H       -119.72201826503382        138.50280281168003        17.413064596260845     
 H       -118.94452179310186        138.03273073969478        18.248094875661749     
 H       -117.78024985636901        138.17172091524628        17.899716040165671     
 C        131.85105475497642        21.944519715384839        84.131042773548117     
 C        131.81390436165668        20.963227116445264        82.959067672877907     
 C        132.37959841315384        23.328551789685832        83.752971560970991     
 C        132.84648195389136        19.934451826772662        83.420853132580589     
 C        132.38715560627546        24.017557141901467        85.117909476573871     
 C        132.47932252053420        19.374805454470575        84.795564318025910     
 H        130.86809193140260        22.022112363895758        83.666431679368415     
 H        131.30989730845405        21.875254257663546        85.074679835494791     
 H        132.34153188247882        21.227733434383705        82.042691318340644     
 H        130.90629326863515        20.378799588155530        82.808115477365007     
 H        131.66129614534253        23.812900861083317        83.091497567017839     
 H        133.43298067784485        23.207851268238944        83.500152977504214     
 H        132.31464061446138        19.623955823004192        82.521499523637928     
 H        133.89986213146864        20.136978046672510        83.227272658355474     
 H        132.84344498124329        24.993131799031751        84.950117920919268     
 H        133.16929300466870        23.549940126677875        85.715985957722381     
 H        131.42605353836646        23.962424887006705        85.629126943692540     
 H        132.85681774194401        18.926542771168318        83.876511627508194     
 H        133.54098585867041        19.364023593489264        84.548876923214522     
 H        133.19500888497572        20.180235212734484        84.630713171886512     
 C        29.095090898979816       -102.84124637346390       -74.980990278137142     
 C        28.556944181791462       -101.90201422915571       -73.901137491685361     
 C        28.556604629643601       -102.53720900915070       -76.379358916304369     
 C        27.051134047107080       -101.71947102370775       -74.093633506156095     
 C        29.555133881403776       -103.22026514974210       -77.314353377346592     
 C        26.361286575782199       -101.05417082562484       -72.902278366327494     
 H        29.847452470031605       -102.05800965979800       -74.888295545727303     
 H        29.981240464988570       -103.47401645782377       -74.931584253698247     
 H        28.414301668529234       -100.83732881914213       -74.086064801253798     
 H        28.840411018798658       -102.09442212589724       -72.866378702516585     
 H        28.001708071722945       -101.65928576557144       -76.710177020517278     
 H        27.986565772203743       -103.45722854831605       -76.250053938004413     
 H        26.989912686905310       -101.16522830815001       -75.030205391268581     
 H        26.666002641682560       -102.73001302054159       -74.229937295362774     
 H        29.793418713233006       -104.28271183281599       -77.264081158001915     
 H        30.543499433782397       -102.78099274781125       -77.449532340089277     
 H        29.189739848647850       -103.15995888582259       -78.339512098966992     
 H        25.609952434582908       -101.08795118573588       -73.691237067934068     
 H        25.815443289758235       -101.94974718048950       -72.605465160796015     
 H        26.951369989163663       -101.89501000418316       -72.537736163835774     
